POSCAR file written by OVITO
1
19.2300415 5.6039644e-05 1.0905499e-06
9.7147656e-05 33.3336525 1.689921e-05
1.048156e-06 9.3478584e-06 18.3533516
Ty 
488 
Cartesian
0.6302662 32.057312 7.4791947
0.4727258 29.5984764 7.4795528
0.3145813 27.139698 7.4801831
0.1577081 24.6810341 7.480875
9.2067614e-05 22.2216263 7.4808593
2.8371318 33.1501007 7.4793225
2.0489931 31.9676744 7.4791847
2.6797498 30.6911316 7.4794712
1.890808 29.5088978 7.4794679
2.5214601 28.2322216 7.480001
1.7335844 27.0502338 7.4800854
2.364501 25.7736969 7.480444
1.5758249 24.5910702 7.4806538
2.2067297 23.3151569 7.4807391
1.4187524 22.1323109 7.4808302
2.0499563 20.8564912 7.480671
1.2609644 19.6734638 7.4806056
1.891923 18.397377 7.4804106
1.1032493 17.2146549 7.480485
1.7344116 15.9383536 7.4805699
0.9452146 14.7554236 7.4807401
1.5762091 13.4789953 7.4807363
0.7878732 12.2960806 7.4808812
1.4188967 11.0196199 7.4808846
0.6302184 9.8369274 7.4809718
1.2611805 8.5604372 7.4805327
0.4733609 7.3780513 7.4804998
1.1040168 6.101367 7.4799495
0.3155993 4.9189272 7.4798723
0.946142 3.6420913 7.4795466
0.1579062 2.4599567 7.4793544
0.7887326 1.1829819 7.479053
-1.421915e-04 6.5918207e-04 7.4789715
4.2555194 33.0605545 7.479795
4.8866138 31.7837944 7.4798603
4.0975933 30.6012059 7.4797263
4.728508 29.325306 7.4801207
3.9401538 28.1427689 7.480166
4.5713206 26.866909 7.4804211
3.782449 25.6839981 7.4804688
4.4135881 24.408083 7.4805203
3.6253057 23.2254677 7.4805184
4.2563572 21.949339 7.4804693
3.4675057 20.7665406 7.4804602
4.0985093 19.4903202 7.4800596
3.3102124 18.3076248 7.4801026
3.9410136 17.0313339 7.4800372
3.15188 15.8487598 7.4802046
3.7826808 14.572196 7.4802504
2.9945596 13.3895016 7.4805794
3.6252876 12.1128969 7.4805193
2.8368492 10.9302598 7.4806261
3.4673724 9.6534233 7.4806566
2.6799684 8.4706869 7.4807291
3.3104756 7.1939058 7.4803314
2.5221138 6.0115848 7.4802199
3.1527402 4.734725 7.4798608
2.3648958 3.5521941 7.4797111
2.9955354 2.2752853 7.4795604
2.2064953 1.0931485 7.4792686
7.0934815 32.8769302 7.4803
6.3049007 31.6943779 7.4801626
6.935986 30.4184036 7.4804969
6.146874 29.2356491 7.4804535
6.7778244 27.9594174 7.4805126
5.9896212 26.7766705 7.480618
6.6208682 25.5007019 7.4806304
5.8320403 24.3179875 7.4805575
6.4631038 23.0419006 7.4801822
5.6748333 21.8593598 7.4801531
6.3058186 20.5832367 7.4797001
5.5169325 19.4006939 7.4797035
6.1477122 18.1241608 7.4795947
5.3587351 16.9417152 7.4796829
5.9901462 15.6649981 7.4795294
5.2012296 14.4825793 7.4798126
5.8317042 13.205698 7.4799581
5.0431356 12.0232105 7.4802389
5.6744809 10.7464094 7.4804116
4.8863216 9.5639124 7.4805522
5.5166459 8.2870617 7.480556
4.7285939 7.1044302 7.4805918
5.3594418 5.8277707 7.4806252
4.5715423 4.6453266 7.4802971
5.2021055 3.3682633 7.480114
4.4132118 2.1857097 7.4798131
5.0439806 0.9091424 7.4798937
8.5117359 32.7873841 7.4805317
9.142457 31.5113888 7.4806762
8.3533945 30.3286972 7.4806733
8.9844522 29.0526142 7.4809165
8.1964407 27.8697968 7.4809289
8.8271714 26.5936032 7.4807816
8.0386391 25.4108067 7.4807353
8.6694308 24.1344204 7.4804025
7.8817278 22.9517518 7.4802857
8.5125141 21.6752892 7.4796429
7.7236634 20.4930992 7.4795246
8.3543959 19.2165356 7.4791913
7.5662942 18.0342178 7.4791966
8.1969719 16.7573681 7.4791885
7.4079156 15.5753174 7.4792018
8.0384932 14.2983332 7.4794679
7.2505398 13.1160402 7.4795289
7.8810216 11.8390828 7.4799247
7.0926194 10.6567498 7.4801231
7.7229872 9.379982 7.4804182
6.9355664 8.1975174 7.4805599
7.5663214 6.9207898 7.4807296
6.7779041 5.7380262 7.4806667
7.4085679 4.4613643 7.4807015
6.620512 3.2787624 7.4805503
7.2513638 2.0025096 7.4804697
6.4623118 0.819828 7.4801736
11.3492308 32.6049843 7.4805794
10.5601645 31.4222203 7.4807501
11.1916752 30.1457748 7.4807382
10.4030075 28.962824 7.4808927
11.0336046 27.6862984 7.4808922
10.2451248 26.5036602 7.4809776
10.8766346 25.2272415 7.4805289
10.0884151 24.0446854 7.4805198
10.7188864 22.7680512 7.4799557
9.930501 21.5856056 7.4798656
10.5612679 20.3088665 7.4795528
9.772954 19.1267681 7.4793682
10.4036884 17.8497144 7.4790759
9.6146021 16.6675129 7.4789806
10.2452889 15.3905163 7.479187
9.4568796 14.2084704 7.4793306
10.0876656 12.931656 7.479549
9.2989731 11.7493105 7.4796911
9.9296236 10.4727755 7.4801746
9.1417322 9.2903319 7.4803133
9.7725926 8.0138969 7.4808655
8.9841518 6.8312073 7.4808202
9.6148958 5.5548721 7.4808517
8.8268147 4.3717728 7.4807921
9.4577675 3.0958257 7.4808541
8.6688843 1.9128984 7.4807782
9.2999363 0.6369176 7.4806514
12.7675963 32.5155525 7.4801989
13.3983154 31.238924 7.4802566
12.6093817 30.056303 7.4805804
13.240077 28.7796841 7.4805246
12.452529 27.5969162 7.4806338
13.0830107 26.3200588 7.4806652
12.294734 25.1375332 7.4807358
12.9251014 23.8606778 7.4803477
12.1377039 22.6783104 7.480228
12.768363 21.4013786 7.4798889
11.979766 20.218998 7.4797201
12.610384 18.9420758 7.4795637
11.8220082 17.7599564 7.4792791
12.4528704 16.4830723 7.4793215
11.6637221 15.3007317 7.4791789
12.2945271 14.0239515 7.479465
11.5061035 12.8418198 7.4794617
12.1369505 11.5654545 7.4799938
11.3482494 10.3827734 7.4800635
11.9791832 9.1067705 7.4804344
11.1910515 7.9240838 7.4806457
11.8221531 6.6481948 7.4807101
11.0333767 5.4653402 7.4808207
11.6645241 4.1890001 7.4806667
10.8760196 3.0066385 7.4806099
11.5072871 1.7303732 7.4804034
10.7183199 0.547456 7.4804793
15.6049481 32.3319092 7.4795356
14.8158608 31.1493492 7.4798198
15.4467249 29.8724632 7.4799657
14.6584931 28.690012 7.4802432
15.2892704 27.413105 7.4804311
14.5009556 26.2305946 7.4805556
15.1315756 24.9538098 7.4805641
14.3439179 23.7712899 7.4805947
14.9745866 22.4944897 7.4806333
14.1862001 21.3120175 7.4803052
14.8167973 20.0349827 7.4801259
14.0287724 18.8524494 7.4798208
14.6593533 17.5757256 7.4798956
13.8703424 16.3931484 7.4797879
14.5011444 15.1169891 7.4798613
13.7130137 13.9342776 7.4797206
14.3436203 12.6583328 7.4800911
13.5547791 11.4758005 7.4801426
14.185853 10.1994839 7.4804044
13.3979492 9.0171604 7.4804621
14.0289707 7.7409697 7.4805222
13.2400799 6.5582867 7.4805112
13.8711234 5.2825236 7.4804631
13.0831242 4.0995455 7.4804597
13.7139969 2.8236664 7.4800525
12.9248266 1.6408345 7.4800768
13.5557232 0.3645485 7.4800291
17.0232258 32.2422447 7.4792109
17.6539364 30.9651642 7.4794722
16.8651658 29.7828045 7.479538
17.4956818 28.5058346 7.4799338
16.7078591 27.3234787 7.4801345
17.3384075 26.0467415 7.4804292
16.5501919 24.8642406 7.480568
17.1807709 23.5875817 7.4807387
16.3929997 22.4046478 7.4806581
17.023922 21.1283875 7.4807105
16.2353211 19.9456234 7.480567
16.8660604 18.6694756 7.4804864
16.0771942 17.4865952 7.4801822
16.7086964 16.2100201 7.4802919
15.9197168 15.0278416 7.4801569
16.5504322 13.7513933 7.4804921
15.7616444 12.5685377 7.4804502
16.3931275 11.2926064 7.4805064
15.6045428 10.1097603 7.4806085
16.2354622 8.8340435 7.4806209
15.4468851 7.6511293 7.4805513
16.0780582 6.375226 7.4801765
15.2897568 5.192759 7.4801483
15.9205218 3.916512 7.4796906
15.1316071 2.7339332 7.4796958
15.7625437 1.4573825 7.4795952
14.9739914 0.2749352 7.4796767
19.071579 30.8752766 7.4793415
18.9144078 28.4160099 7.4796996
18.7564297 25.9571724 7.4803381
18.5995903 23.4982891 7.4808307
18.4415646 21.0392036 7.4808026
19.0728283 19.7627945 7.4808707
18.2845173 18.5798817 7.4807821
18.91531 17.3038311 7.4806519
18.1262932 16.1207962 7.4805374
18.7571907 14.8449946 7.4806757
17.9688244 13.6619911 7.4806719
18.599886 12.3858976 7.4809084
17.8110504 11.2031088 7.4809213
18.4419327 9.9268886 7.4807754
17.6539631 8.7441788 7.4807287
18.2849503 7.4677682 7.4803953
17.4964085 6.2851172 7.480279
18.127245 5.0085697 7.4796348
17.3389073 3.8264761 7.4795261
17.9696598 2.5497942 7.4791837
17.1807575 1.3674361 7.4791913
17.8116093 0.0904581 7.4791823
5.0697417e-05 11.112011 10.87251
0.1577207 8.6528559 10.87249
0.31457 6.1939783 10.873167
0.4727034 3.7351105 10.8738156
0.6302269 1.2761355 10.8741732
-1.2197484e-04 -9.7268706e-04 10.8743792
0.7888168 32.1504784 10.8743144
0.1580391 30.873499 10.8740226
0.9462108 29.6913739 10.8738214
0.3156646 28.4144936 10.8734942
1.1041193 27.2320595 10.873436
0.4735158 25.9555092 10.8728696
1.2613264 24.7730465 10.8728418
0.6302981 23.4967747 10.8723984
1.418883 22.3140926 10.8724842
0.7879204 21.0378437 10.8725004
1.5763059 19.8550836 10.8726416
0.94516 18.5783386 10.8726282
1.7344296 17.3954888 10.8727856
1.1032025 16.1193867 10.872882
1.8918016 14.9367152 10.8729402
1.2608132 13.6606951 10.8727666
2.0497866 12.4777899 10.8727122
1.4186236 11.2017555 10.8725406
2.2066579 10.0190248 10.872653
1.5757143 8.7428103 10.872715
2.3643513 7.5602217 10.8729258
1.7335447 6.2839079 10.8732958
2.5214138 5.1014423 10.8733598
1.8907808 3.8249414 10.8739004
2.6797252 2.6427922 10.8738966
2.0490098 1.3659493 10.8741838
2.837204 0.183461 10.874053
2.206631 32.2403145 10.8740998
2.9955888 31.0581512 10.873809
2.3649836 29.7812214 10.8736572
3.1528041 28.5987053 10.8735086
2.5221813 27.3218441 10.873148
3.3105707 26.1395149 10.8730326
2.6800726 24.8627244 10.8726578
3.4674061 23.6799889 10.8727046
2.8368843 22.4031773 10.8727408
3.6253503 21.2205315 10.87286
2.9946806 19.9440784 10.8727876
3.7827759 18.7613201 10.8731184
3.1519487 17.4849625 10.8731624
3.9410098 16.302414 10.8733312
3.3101854 15.0263691 10.8732634
4.098558 13.8437166 10.8733082
3.467418 12.5672226 10.8729076
4.2563334 11.3844853 10.8728982
3.6252237 10.108614 10.8728666
4.4134617 8.9260054 10.8728372
3.7822538 7.6501866 10.8728962
4.5711003 6.4673691 10.8729478
3.9399942 5.1913629 10.8732148
4.7284036 4.008882 10.8732692
4.0974531 2.7326226 10.873641
4.886456 1.5499547 10.8735018
4.2555633 0.2733702 10.8735704
5.0441861 32.4247399 10.8734732
4.4133425 31.1478462 10.8735552
5.202189 29.9651642 10.8732644
4.5716172 28.6881085 10.8730718
5.3595028 27.5056801 10.8727436
4.7286554 26.2290001 10.872776
5.516695 25.0463848 10.8728132
4.8863798 23.7695141 10.8728238
5.6745138 22.5870304 10.8729602
5.043169 21.3102284 10.8731356
5.8317275 20.1277561 10.8734112
5.2012963 18.8508682 10.8735534
5.99015 17.6684761 10.8738346
5.3587303 16.3917294 10.873685
6.1477437 15.209302 10.8737564
5.5170212 13.9328966 10.873665
6.3058791 12.7502947 10.8736688
5.6748624 11.4743757 10.8732148
6.4630637 10.2918606 10.8731862
5.8319707 9.0160246 10.8728094
6.6208797 7.8333688 10.8727398
5.9894824 6.5571537 10.8727684
6.7777596 5.3744049 10.87286
6.1467667 4.0984592 10.8729068
6.935781 2.915604 10.8728876
6.3046909 1.6395068 10.8732042
7.0932255 0.456778 10.8730632
6.462441 32.5141602 10.8731956
7.2515321 31.3312779 10.8729
6.6205759 30.0547657 10.8728352
7.408628 28.8721162 10.8726768
6.778008 27.5953865 10.8726902
7.5663748 26.4126854 10.8726378
6.9356194 25.1359272 10.8728104
7.7230249 23.9534798 10.8729506
7.0926733 22.6766186 10.8732244
7.8810382 21.4943791 10.8734456
7.2505322 20.2173805 10.873849
8.0385027 19.0351295 10.8739004
7.4079228 17.7581253 10.8741656
8.1969757 16.5761013 10.8741798
7.5662861 15.2992363 10.8741714
8.354394 14.1169167 10.8741952
7.723702 12.8403464 10.8738346
8.5124884 11.6582041 10.873724
7.8816896 10.3817063 10.8730822
8.6694269 9.1990748 10.8729658
8.0386925 7.922801 10.872632
8.827199 6.7399445 10.8725872
8.1964436 5.4639545 10.8724404
8.9843942 4.2811523 10.8724508
8.3533373 3.0052171 10.872695
9.1423569 1.8223884 10.8726932
8.5114193 0.5459845 10.872838
9.2998295 32.6969261 10.872717
8.6689158 31.4208203 10.872591
9.4579067 30.2380028 10.8725148
8.8269367 28.9616528 10.8725786
9.6150246 27.77874 10.8725166
8.9842702 26.5022908 10.8725492
9.7726755 25.3195896 10.8725024
9.1417856 24.0431347 10.8730556
9.9296514 22.8607006 10.8731766
9.299017 21.5841389 10.8737002
10.0876761 20.4018211 10.8738194
9.4568997 19.1249905 10.874034
10.2452965 17.942955 10.8741808
9.6146002 16.6659432 10.8743878
10.4037056 15.4837094 10.8743068
9.772955 14.206687 10.8740072
10.5612402 13.0246096 10.8738156
9.9304838 11.7478266 10.8735018
10.7188511 10.5654097 10.8734274
10.0883379 9.2887173 10.87286
10.8765918 8.106246 10.8728304
10.2451182 6.829823 10.8723898
11.0335464 5.6471915 10.8724766
10.4029684 4.370625 10.8724718
11.1916666 3.187789 10.872615
10.5600701 1.91167 10.8726188
11.3491001 0.7288733 10.8727876
10.7181807 32.7860146 10.8728886
11.5072003 31.6033764 10.8729478
10.8761312 30.3274174 10.8727598
11.664589 29.1446991 10.8727026
11.0334959 27.8685474 10.8725482
11.8222628 26.6857643 10.872654
11.1911392 25.4095707 10.8727198
11.97927 24.226984 10.8729344
11.3483467 22.9506454 10.8733054
12.1370354 21.7681771 10.873376
11.5061846 20.4916821 10.873908
12.2945833 19.3095474 10.8739034
11.6637459 18.0327435 10.8741922
12.4528837 16.850422 10.8740636
11.8220148 15.5735073 10.8740912
12.6103649 14.3914261 10.873806
11.979763 13.1144724 10.8736496
12.7683487 11.9320984 10.8735
12.1376667 10.65516 10.8731394
12.9250604 9.4727936 10.8730268
12.2946854 8.1959457 10.8726302
13.0829582 7.0133953 10.8726912
12.452466 5.7365632 10.8727342
13.2400055 4.5537906 10.8728542
12.609272 3.2772832 10.8727856
13.398283 2.0948758 10.8731118
12.7675381 0.8184952 10.87317
13.5558472 32.96904 10.8733444
12.9248304 31.6931534 10.873272
13.7139359 30.5105934 10.8732996
13.0830832 29.2345982 10.8729
13.8711644 28.0517292 10.8729076
13.2400923 26.7756539 10.8728734
14.0289278 25.5930405 10.8728466
13.3979864 24.3170548 10.8729058
14.1858969 23.134243 10.8729382
13.5548668 21.858139 10.8732234
14.3437004 20.6756344 10.8732778
13.7130595 19.3993969 10.8736486
14.5012055 18.2167797 10.8735086
13.8704034 16.9402848 10.873582
14.6594076 15.7579193 10.8734694
14.0288181 14.4810696 10.8735486
14.816823 13.2985144 10.8732538
14.1861858 12.0214777 10.8730622
14.9745494 10.839016 10.872736
14.3438854 9.5622006 10.8727704
15.1315308 8.3796978 10.8728066
14.5008936 7.1028862 10.872819
15.2892103 5.9203658 10.8729516
14.6584254 4.6434851 10.873126
15.4466295 3.4610276 10.8734036
14.815816 2.1841769 10.8735496
15.6049309 1.0018445 10.8738338
14.9742222 33.0590324 10.8736936
15.7627583 31.8767282 10.8737736
15.1316023 30.5999298 10.8736906
15.9206048 29.4173775 10.873682
15.2897844 28.1413727 10.8732204
16.0779972 26.9589044 10.8731928
15.4467993 25.6830998 10.87282
16.2353687 24.5003166 10.8727256
15.6044512 23.2244415 10.8727742
16.3931275 22.0416527 10.872862
15.7616091 20.7654801 10.8729096
16.5503521 19.5826397 10.8728944
15.9197264 18.3063736 10.873212
16.7087059 17.1237869 10.8730718
16.0772381 15.8473388 10.8731862
16.8660908 14.664484 10.8728896
16.2353363 13.3880434 10.8728266
17.0239372 12.20537 10.8726712
16.3930302 10.9287902 10.8726932
17.1807957 9.7460566 10.8726312
16.5501995 8.4692955 10.8728018
17.3383865 7.2867861 10.872942
16.7078285 6.0099592 10.8732148
17.4956017 4.8277025 10.873436
16.8651066 3.5506912 10.8738318
17.6538391 2.368377 10.8738976
17.0231724 1.0912946 10.874159
17.8117581 33.2430878 10.8741884
17.1809616 31.9662572 10.874176
17.9698392 30.7837925 10.8742028
17.339035 29.5073128 10.8738442
18.127306 28.3252602 10.8737298
17.4964524 27.0489559 10.873087
18.2850723 25.8663484 10.8729734
17.6539364 24.5896874 10.8726388
18.441948 23.4070587 10.8726026
17.8109989 22.1310616 10.8724528
18.5997906 20.9482498 10.8724576
17.9687042 19.6723004 10.872696
18.7570782 18.4894848 10.8726902
18.1261921 17.2133999 10.8728658
18.9152794 16.0304775 10.872717
18.2844792 14.7541218 10.8725834
19.0727139 13.5712242 10.8725042
18.4415474 12.2950392 10.872571
18.5995941 9.8356552 10.8725396
18.7564202 7.3765097 10.8730402
18.9143944 4.9174566 10.8736888
19.071558 2.4583311 10.8740274
