POSCAR file written by OVITO
1
19.2132149 0.0 0.0
0.0 33.2782631 0.0
0.0 0.0 18.3999996
Type_1 
488
Cartesian
0.63 32.0050011 7.5
0.472 29.5499993 7.5
0.315 27.0949993 7.5
0.157 24.6399994 7.5
0.0 22.1860008 7.5
2.8350001 33.0960007 7.5
2.0469999 31.9139996 7.5
2.6770001 30.6410008 7.5
1.89 29.4589997 7.5
2.52 28.1870003 7.5
1.732 27.0039997 7.5
2.362 25.7320004 7.5
1.5750001 24.5499993 7.5
2.2049999 23.2770004 7.5
1.4170001 22.0949993 7.5
2.0469999 20.8220005 7.5
1.26 19.6399994 7.5
1.89 18.3670006 7.5
1.102 17.1849995 7.5
1.732 15.9119998 7.5
0.945 14.7299996 7.5
1.5750001 13.4569998 7.5
0.787 12.2749996 7.5
1.4170001 11.0019999 7.5
0.63 9.8199997 7.5
1.26 8.547 7.5
0.472 7.3649998 7.5
1.102 6.092 7.5
0.315 4.9099998 7.5
0.945 3.6370001 7.5
0.157 2.4549999 7.5
0.787 1.182 7.5
0.0 0.0 7.5
4.2519999 33.0050011 7.5
4.882 31.7329998 7.5
4.0949998 30.5510006 7.5
4.7249999 29.2779999 7.5
3.937 28.0960007 7.5
4.5669999 26.823 7.5
3.78 25.6410008 7.5
4.4099999 24.368 7.5
3.622 23.1860008 7.5
4.2519999 21.9130002 7.5
3.4649999 20.7310009 7.5
4.0949998 19.4580002 7.5
3.3069999 18.2759991 7.5
3.937 17.0030003 7.5
3.1500001 15.8210001 7.5
3.78 14.5480004 7.5
2.9920002 13.3660002 7.5
3.622 12.0930004 7.5
2.8350001 10.9110004 7.5
3.4649999 9.6379996 7.5
2.6770001 8.4560004 7.5
3.3069999 7.1830001 7.5
2.52 6.0009999 7.5
3.1500001 4.7280002 7.5
2.362 3.546 7.5
2.9920002 2.273 7.5
2.2049999 1.091 7.5
7.0869999 32.8240013 7.5
6.2989998 31.6420002 7.5
6.929 30.3689995 7.5
6.1420002 29.1870003 7.5
6.7719999 27.9139996 7.5
5.9840002 26.7320004 7.5
6.6139999 25.4589997 7.5
5.8270002 24.2770004 7.5
6.4569998 23.0039997 7.5
5.6690002 21.8220005 7.5
6.2989998 20.5489998 7.5
5.5120001 19.3670006 7.5
6.1420002 18.0939999 7.5
5.355 16.9120008 7.5
5.9840002 15.639 7.5
5.197 14.4569998 7.5
5.8270002 13.184 7.5
5.04 12.0019999 7.5
5.6690002 10.7290001 7.5
4.882 9.547 7.5
5.5120001 8.2740002 7.5
4.7249999 7.092 7.5
5.355 5.8189998 7.5
4.5669999 4.6370001 7.5
5.197 3.3640001 7.5
4.4099999 2.1819999 7.5
5.04 0.909 7.5
8.5039997 32.7330017 7.5
9.1339998 31.4599991 7.5
8.3470001 30.2779999 7.5
8.9770002 29.0049992 7.5
8.1890001 27.823 7.5
8.8190003 26.5499993 7.5
8.0319996 25.368 7.5
8.6619997 24.0949993 7.5
7.8740002 22.9130002 7.5
8.5039997 21.6399994 7.5
7.717 20.4580002 7.5
8.3470001 19.1849995 7.5
7.559 18.0030003 7.5
8.1890001 16.7299996 7.5
7.402 15.5480004 7.5
8.0319996 14.2749996 7.5
7.244 13.0930004 7.5
7.8740002 11.8199997 7.5
7.0869999 10.6379996 7.5
7.717 9.3649998 7.5
6.929 8.1829996 7.5
7.559 6.9099998 7.5
6.7719999 5.7280002 7.5
7.402 4.4549999 7.5
6.6139999 3.273 7.5
7.244 2.0 7.5
6.4569998 0.818 7.5
11.3389998 32.5509987 7.5
10.5520001 31.3689995 7.5
11.1809998 30.0960007 7.5
10.3940001 28.9139996 7.5
11.0240002 27.6410008 7.5
10.2370005 26.4589997 7.5
10.8660002 25.1860008 7.5
10.0790005 24.0039997 7.5
10.7089997 22.7310009 7.5
9.922 21.5489998 7.5
10.5520001 20.2759991 7.5
9.764 19.0939999 7.5
10.3940001 17.8209992 7.5
9.6070004 16.639 7.5
10.2370005 15.3660002 7.5
9.4490004 14.184 7.5
10.0790005 12.9110004 7.5
9.2919998 11.7290001 7.5
9.922 10.4560004 7.5
9.1339998 9.2740002 7.5
9.764 8.0010004 7.5
8.9770002 6.8189998 7.5
9.6070004 5.546 7.5
8.8190003 4.3639999 7.5
9.4490004 3.0910001 7.5
8.6619997 1.909 7.5
9.2919998 0.636 7.5
12.7559996 32.4599991 7.5
13.3859997 31.1870003 7.5
12.599 30.0049992 7.5
13.2290001 28.7320004 7.5
12.441 27.5499993 7.5
13.0710001 26.2770004 7.5
12.2840004 25.0949993 7.5
12.9139996 23.8220005 7.5
12.1260004 22.6399994 7.5
12.7559996 21.3670006 7.5
11.969 20.1849995 7.5
12.599 18.9120008 7.5
11.8109999 17.7299996 7.5
12.441 16.4570008 7.5
11.6540003 15.2749996 7.5
12.2840004 14.0019999 7.5
11.4960003 12.8199997 7.5
12.1260004 11.547 7.5
11.3389998 10.3649998 7.5
11.969 9.092 7.5
11.1809998 7.9099998 7.5
11.8109999 6.6370001 7.5
11.0240002 5.4549999 7.5
11.6540003 4.1830001 7.5
10.8660002 3.0 7.5
11.4960003 1.7280001 7.5
10.7089997 0.546 7.5
15.5909996 32.2779999 7.5
14.8039999 31.0960007 7.5
15.434 29.823 7.5
14.6459999 28.6410008 7.5
15.276 27.368 7.5
14.4890003 26.1860008 7.5
15.1190004 24.9130002 7.5
14.3310003 23.7310009 7.5
14.9610004 22.4580002 7.5
14.1739998 21.2759991 7.5
14.8039999 20.0030003 7.5
14.0159998 18.8209992 7.5
14.6459999 17.5480004 7.5
13.8590002 16.3659992 7.5
14.4890003 15.0930004 7.5
13.7010002 13.9110004 7.5
14.3310003 12.6379996 7.5
13.5439997 11.4560004 7.5
14.1739998 10.184 7.5
13.3859997 9.0010004 7.5
14.0159998 7.7290001 7.5
13.2290001 6.547 7.5
13.8590002 5.2740002 7.5
13.0710001 4.092 7.5
13.7010002 2.819 7.5
12.9139996 1.637 7.5
13.5439997 0.364 7.5
17.0079994 32.1870003 7.5
17.6380005 30.9139996 7.5
16.8509998 29.7320004 7.5
17.4810009 28.4589997 7.5
16.6930008 27.2770004 7.5
17.323 26.0039997 7.5
16.5359993 24.8220005 7.5
17.1660004 23.5489998 7.5
16.3780003 22.3670006 7.5
17.0079994 21.0939999 7.5
16.2210007 19.9120008 7.5
16.8509998 18.639 7.5
16.0639992 17.4570008 7.5
16.6930008 16.1849995 7.5
15.9060002 15.0019999 7.5
16.5359993 13.7299996 7.5
15.7489996 12.5480004 7.5
16.3780003 11.2749996 7.5
15.5909996 10.0930004 7.5
16.2210007 8.8199997 7.5
15.434 7.638 7.5
16.0639992 6.3649998 7.5
15.276 5.1830001 7.5
15.9060002 3.9100002 7.5
15.1190004 2.728 7.5
15.7489996 1.4550001 7.5
14.9610004 0.273 7.5
19.0559998 30.823 7.5
18.8980008 28.368 7.5
18.7409992 25.9130002 7.5
18.5830002 23.4580002 7.5
18.4260006 21.0030003 7.5
19.0559998 19.7310009 7.5
18.2679997 18.5489998 7.5
18.8980008 17.2759991 7.5
18.1110001 16.0939999 7.5
18.7409992 14.8210001 7.5
17.9529992 13.639 7.5
18.5830002 12.3660002 7.5
17.7959996 11.184 7.5
18.4260006 9.9110004 7.5
17.6380005 8.7290001 7.5
18.2679997 7.4559999 7.5
17.4810009 6.2740002 7.5
18.1110001 5.0009999 7.5
17.323 3.819 7.5
17.9529992 2.546 7.5
17.1660004 1.364 7.5
17.7959996 0.091 7.5
0.0 11.0930004 10.8999996
0.157 8.6379996 10.8999996
0.315 6.1830001 10.8999996
0.472 3.728 10.8999996
0.63 1.273 10.8999996
0.0 0.0 10.8999996
0.787 32.0960007 10.8999996
0.157 30.823 10.8999996
0.945 29.6410008 10.8999996
0.315 28.368 10.8999996
1.102 27.1860008 10.8999996
0.472 25.9130002 10.8999996
1.26 24.7310009 10.8999996
0.63 23.4580002 10.8999996
1.4170001 22.2759991 10.8999996
0.787 21.0030003 10.8999996
1.5750001 19.8209992 10.8999996
0.945 18.5489998 10.8999996
1.732 17.3670006 10.8999996
1.102 16.0939999 10.8999996
1.89 14.9119998 10.8999996
1.26 13.639 10.8999996
2.0469999 12.4569998 10.8999996
1.4170001 11.184 10.8999996
2.2049999 10.0019999 10.8999996
1.5750001 8.7290001 10.8999996
2.362 7.547 10.8999996
1.732 6.2740002 10.8999996
2.52 5.092 10.8999996
1.89 3.819 10.8999996
2.6770001 2.6370001 10.8999996
2.0469999 1.364 10.8999996
2.8350001 0.182 10.8999996
2.2049999 32.1870003 10.8999996
2.9920002 31.0049992 10.8999996
2.362 29.7320004 10.8999996
3.1500001 28.5499993 10.8999996
2.52 27.2770004 10.8999996
3.3069999 26.0949993 10.8999996
2.6770001 24.8220005 10.8999996
3.4649999 23.6399994 10.8999996
2.8350001 22.3670006 10.8999996
3.622 21.1849995 10.8999996
2.9920002 19.9120008 10.8999996
3.78 18.7299996 10.8999996
3.1500001 17.4570008 10.8999996
3.937 16.2749996 10.8999996
3.3069999 15.0019999 10.8999996
4.0949998 13.8199997 10.8999996
3.4649999 12.5480004 10.8999996
4.2519999 11.3660002 10.8999996
3.622 10.0930004 10.8999996
4.4099999 8.9110004 10.8999996
3.78 7.638 10.8999996
4.5669999 6.4559999 10.8999996
3.937 5.1830001 10.8999996
4.7249999 4.0009999 10.8999996
4.0949998 2.728 10.8999996
4.882 1.546 10.8999996
4.2519999 0.273 10.8999996
5.04 32.3689995 10.8999996
4.4099999 31.0960007 10.8999996
5.197 29.9139996 10.8999996
4.5669999 28.6410008 10.8999996
5.355 27.4589997 10.8999996
4.7249999 26.1860008 10.8999996
5.5120001 25.0039997 10.8999996
4.882 23.7310009 10.8999996
5.6690002 22.5489998 10.8999996
5.04 21.2759991 10.8999996
5.8270002 20.0939999 10.8999996
5.197 18.8209992 10.8999996
5.9840002 17.639 10.8999996
5.355 16.3659992 10.8999996
6.1420002 15.184 10.8999996
5.5120001 13.9110004 10.8999996
6.2989998 12.7290001 10.8999996
5.6690002 11.4560004 10.8999996
6.4569998 10.2740002 10.8999996
5.8270002 9.0010004 10.8999996
6.6139999 7.8189998 10.8999996
5.9840002 6.547 10.8999996
6.7719999 5.3649998 10.8999996
6.1420002 4.092 10.8999996
6.929 2.9100002 10.8999996
6.2989998 1.637 10.8999996
7.0869999 0.455 10.8999996
6.4569998 32.4599991 10.8999996
7.244 31.2779999 10.8999996
6.6139999 30.0049992 10.8999996
7.402 28.823 10.8999996
6.7719999 27.5499993 10.8999996
7.559 26.368 10.8999996
6.929 25.0949993 10.8999996
7.717 23.9130002 10.8999996
7.0869999 22.6399994 10.8999996
7.8740002 21.4580002 10.8999996
7.244 20.1849995 10.8999996
8.0319996 19.0030003 10.8999996
7.402 17.7299996 10.8999996
8.1890001 16.5480004 10.8999996
7.559 15.2749996 10.8999996
8.3470001 14.0930004 10.8999996
7.717 12.8199997 10.8999996
8.5039997 11.6379996 10.8999996
7.8740002 10.3649998 10.8999996
8.6619997 9.1829996 10.8999996
8.0319996 7.9099998 10.8999996
8.8190003 6.7280002 10.8999996
8.1890001 5.4549999 10.8999996
8.9770002 4.2729998 10.8999996
8.3470001 3.0 10.8999996
9.1339998 1.818 10.8999996
8.5039997 0.546 10.8999996
9.2919998 32.6419983 10.8999996
8.6619997 31.3689995 10.8999996
9.4490004 30.1870003 10.8999996
8.8190003 28.9139996 10.8999996
9.6070004 27.7320004 10.8999996
8.9770002 26.4589997 10.8999996
9.764 25.2770004 10.8999996
9.1339998 24.0039997 10.8999996
9.922 22.8220005 10.8999996
9.2919998 21.5489998 10.8999996
10.0790005 20.3670006 10.8999996
9.4490004 19.0939999 10.8999996
10.2370005 17.9120008 10.8999996
9.6070004 16.639 10.8999996
10.3940001 15.4569998 10.8999996
9.764 14.184 10.8999996
10.5520001 13.0019999 10.8999996
9.922 11.7290001 10.8999996
10.7089997 10.547 10.8999996
10.0790005 9.2740002 10.8999996
10.8660002 8.092 10.8999996
10.2370005 6.8189998 10.8999996
11.0240002 5.6370001 10.8999996
10.3940001 4.3639999 10.8999996
11.1809998 3.1819999 10.8999996
10.5520001 1.909 10.8999996
11.3389998 0.727 10.8999996
10.7089997 32.7330017 10.8999996
11.4960003 31.5510006 10.8999996
10.8660002 30.2779999 10.8999996
11.6540003 29.0960007 10.8999996
11.0240002 27.823 10.8999996
11.8109999 26.6410008 10.8999996
11.1809998 25.368 10.8999996
11.969 24.1860008 10.8999996
11.3389998 22.9130002 10.8999996
12.1260004 21.7310009 10.8999996
11.4960003 20.4580002 10.8999996
12.2840004 19.2759991 10.8999996
11.6540003 18.0030003 10.8999996
12.441 16.8209992 10.8999996
11.8109999 15.5480004 10.8999996
12.599 14.3660002 10.8999996
11.969 13.0930004 10.8999996
12.7559996 11.9110004 10.8999996
12.1260004 10.6379996 10.8999996
12.9139996 9.4560004 10.8999996
12.2840004 8.1829996 10.8999996
13.0710001 7.0009999 10.8999996
12.441 5.7280002 10.8999996
13.2290001 4.546 10.8999996
12.599 3.273 10.8999996
13.3859997 2.0910001 10.8999996
12.7559996 0.818 10.8999996
13.5439997 32.915001 10.8999996
12.9139996 31.6420002 10.8999996
13.7010002 30.4599991 10.8999996
13.0710001 29.1870003 10.8999996
13.8590002 28.0049992 10.8999996
13.2290001 26.7320004 10.8999996
14.0159998 25.5499993 10.8999996
13.3859997 24.2770004 10.8999996
14.1739998 23.0949993 10.8999996
13.5439997 21.8220005 10.8999996
14.3310003 20.6399994 10.8999996
13.7010002 19.3670006 10.8999996
14.4890003 18.1849995 10.8999996
13.8590002 16.9120008 10.8999996
14.6459999 15.7299996 10.8999996
14.0159998 14.4569998 10.8999996
14.8039999 13.2749996 10.8999996
14.1739998 12.0019999 10.8999996
14.9610004 10.8199997 10.8999996
14.3310003 9.547 10.8999996
15.1190004 8.3649998 10.8999996
14.4890003 7.092 10.8999996
15.276 5.9099998 10.8999996
14.6459999 4.6370001 10.8999996
15.434 3.4549999 10.8999996
14.8039999 2.1819999 10.8999996
15.5909996 1.0 10.8999996
14.9610004 33.0050011 10.8999996
15.7489996 31.823 10.8999996
15.1190004 30.5510006 10.8999996
15.9060002 29.3689995 10.8999996
15.276 28.0960007 10.8999996
16.0639992 26.9139996 10.8999996
15.434 25.6410008 10.8999996
16.2210007 24.4589997 10.8999996
15.5909996 23.1860008 10.8999996
16.3780003 22.0039997 10.8999996
15.7489996 20.7310009 10.8999996
16.5359993 19.5489998 10.8999996
15.9060002 18.2759991 10.8999996
16.6930008 17.0939999 10.8999996
16.0639992 15.8210001 10.8999996
16.8509998 14.639 10.8999996
16.2210007 13.3660002 10.8999996
17.0079994 12.184 10.8999996
16.3780003 10.9110004 10.8999996
17.1660004 9.7290001 10.8999996
16.5359993 8.4560004 10.8999996
17.323 7.2740002 10.8999996
16.6930008 6.0009999 10.8999996
17.4810009 4.8189998 10.8999996
16.8509998 3.546 10.8999996
17.6380005 2.3640001 10.8999996
17.0079994 1.091 10.8999996
17.7959996 33.1870003 10.8999996
17.1660004 31.9139996 10.8999996
17.9529992 30.7320004 10.8999996
17.323 29.4589997 10.8999996
18.1110001 28.2770004 10.8999996
17.4810009 27.0039997 10.8999996
18.2679997 25.8220005 10.8999996
17.6380005 24.5499993 10.8999996
18.4260006 23.368 10.8999996
17.7959996 22.0949993 10.8999996
18.5830002 20.9130002 10.8999996
17.9529992 19.6399994 10.8999996
18.7409992 18.4580002 10.8999996
18.1110001 17.1849995 10.8999996
18.8980008 16.0030003 10.8999996
18.2679997 14.7299996 10.8999996
19.0559998 13.5480004 10.8999996
18.4260006 12.2749996 10.8999996
18.5830002 9.8199997 10.8999996
18.7409992 7.3649998 10.8999996
18.8980008 4.9099998 10.8999996
19.0559998 2.4549999 10.8999996

