written by TR 
1.000000000 
121.242847000 0.000000000 0.000000000 
60.621423500 104.999385529 0.000000000 
0.000000000 0.000000000 15.000000000 
Type1 
9748
Cartesian 
0.73240000 1.21392000 2.89332000 
0.00000227 -0.00000207 2.89245000 
2.92731000 4.85705000 2.90416000 
2.19649000 3.64220000 2.89959000 
2.88175000 2.40100000 2.89814000 
2.14987000 1.18674000 2.89500000 
5.11659000 8.50358000 2.91804000 
4.38828000 7.28728000 2.91376000 
5.07431000 6.04634000 2.91183000 
4.34471000 4.83073000 2.90701000 
5.03010000 3.58956000 2.90593000 
4.29918000 2.37467000 2.90164000 
4.98438000 1.13350000 2.90230000 
6.53394000 8.47830000 2.92037000 
7.22018000 7.23743000 2.91926000 
6.49167000 6.02112000 2.91500000 
7.17733000 4.78006000 2.91429000 
6.44749000 3.56446000 2.91000000 
7.13291000 2.32339000 2.91045000 
6.40184000 1.10849000 2.90698000 
9.36526000 8.43003000 2.92566000 
8.63751000 7.21323000 2.92209000 
9.32361000 5.97238000 2.92153000 
8.59469000 4.75618000 2.91786000 
9.28049000 3.51531000 2.91804000 
8.55033000 2.29978000 2.91477000 
9.23623000 1.05909000 2.91614000 
-0.00000010 0.00000257 6.50755000 
2.78821000 2.50932000 6.50187000 
2.10259000 1.26842000 6.50499000 
2.83498000 0.05447640 6.50418000 
4.84823000 6.22960000 6.48829000 
4.16031000 4.99004000 6.49301000 
4.89239000 3.77596000 6.49411000 
4.20577000 2.53568000 6.49835000 
4.93810000 1.32167000 6.49770000 
4.25247000 0.08080660 6.50041000 
6.22381000 8.70837000 6.48005000 
6.95501000 7.49384000 6.48136000 
6.26596000 6.25496000 6.48517000 
6.99779000 5.04071000 6.48587000 
6.31004000 3.80113000 6.48996000 
7.04218000 2.58697000 6.48951000 
6.35564000 1.34669000 6.49298000 
7.08755000 0.13231000 6.49097000 
9.06268000 8.75661000 6.47632000 
8.37281000 7.51822000 6.47871000 
9.10423000 6.30370000 6.47892000 
8.41550000 5.06471000 6.48205000 
9.14730000 3.85030000 6.48169000 
8.45979000 2.61063000 6.48495000 
9.19155000 1.39610000 6.48367000 
8.50505000 0.15582700 6.48624000 
10.78260000 8.40661000 2.92796000 
11.46930000 7.16605000 2.92721000 
10.74100000 5.94947000 2.92409000 
11.42730000 4.70886000 2.92382000 
10.69790000 3.49285000 2.92119000 
11.38410000 2.25234000 2.92189000 
10.65370000 1.03689000 2.91991000 
13.61460000 8.36052000 2.93179000 
12.88670000 7.14375000 2.92872000 
13.57370000 5.90347000 2.92772000 
12.84470000 4.68717000 2.92554000 
13.53150000 3.44690000 2.92553000 
12.80160000 2.23108000 2.92421000 
13.48840000 0.99094800 2.92538000 
15.03210000 8.33863000 2.93253000 
15.71970000 7.09870000 2.93054000 
14.99110000 5.88224000 2.92820000 
15.67840000 4.64227000 2.92732000 
14.94890000 3.42622000 2.92638000 
15.63610000 2.18626000 2.92700000 
14.90590000 0.97056300 2.92706000 
17.86550000 8.29449000 2.93353000 
17.13720000 7.07787000 2.93030000 
17.82510000 5.83820000 2.92842000 
17.09590000 4.62200000 2.92713000 
17.78350000 3.38226000 2.92711000 
17.05360000 2.16638000 2.92752000 
17.74100000 0.92663200 2.92936000 
10.48050000 8.78028000 6.47430000 
11.21140000 7.56541000 6.47385000 
10.52200000 6.32679000 6.47576000 
11.25330000 5.11205000 6.47523000 
10.56500000 3.87285000 6.47781000 
11.29640000 2.65810000 6.47706000 
10.60910000 1.41833000 6.47959000 
11.34030000 0.20333300 6.47831000 
13.31900000 8.82636000 6.47022000 
12.62920000 7.58795000 6.47107000 
13.35990000 6.37282000 6.47000000 
12.67100000 5.13390000 6.47188000 
13.40200000 3.91885000 6.47125000 
12.71400000 2.67944000 6.47365000 
13.44500000 1.46429000 6.47320000 
12.75780000 0.22445800 6.47531000 
14.73680000 8.84856000 6.46718000 
15.46680000 7.63303000 6.46524000 
14.77760000 6.39427000 6.46661000 
15.50800000 5.17886000 6.46566000 
14.81960000 3.93967000 6.46802000 
15.55030000 2.72430000 6.46800000 
14.86260000 1.48473000 6.47061000 
15.59320000 0.26926900 6.47099000 
17.57410000 8.89274000 6.46014000 
16.88450000 7.65417000 6.46122000 
17.61440000 6.43839000 6.45961000 
16.92560000 5.19934000 6.46200000 
17.65590000 3.98369000 6.46197000 
16.96780000 2.74429000 6.46520000 
17.69830000 1.52869000 6.46629000 
17.01070000 0.28905000 6.46935000 
19.28300000 8.27423000 2.93322000 
19.97150000 7.03484000 2.93042000 
19.24260000 5.81843000 2.92791000 
19.93060000 4.57892000 2.92714000 
19.20090000 3.36288000 2.92702000 
19.88860000 2.12328000 2.92861000 
19.15850000 0.90745800 2.93026000 
22.11720000 8.23272000 2.93463000 
21.38890000 7.01589000 2.93038000 
22.07740000 5.77662000 2.92889000 
21.34810000 4.56030000 2.92725000 
22.03610000 3.32089000 2.92835000 
21.30610000 2.10489000 2.92933000 
21.99390000 0.86536500 2.93284000 
23.53470000 8.21499000 2.93561000 
24.22340000 6.97592000 2.93366000 
23.49480000 5.75913000 2.92995000 
24.18310000 4.51990000 2.93041000 
23.45360000 3.30358000 2.92966000 
24.14150000 2.06421000 2.93277000 
23.41140000 0.84815100 2.93464000 
26.36850000 8.17741000 2.94167000 
25.64090000 6.95992000 2.93604000 
26.32950000 5.72089000 2.93592000 
25.60060000 4.50405000 2.93288000 
26.28870000 3.26486000 2.93524000 
25.55900000 2.04846000 2.93527000 
26.24690000 0.80918300 2.93983000 
27.78590000 8.16313000 2.94523000 
27.74690000 5.70677000 2.93968000 
27.70620000 3.25086000 2.93880000 
27.66440000 0.79522800 2.94294000 
18.99180000 8.91336000 6.45522000 
19.72120000 7.69724000 6.45292000 
19.03200000 6.45842000 6.45523000 
19.76180000 5.24246000 6.45487000 
19.07340000 4.00322000 6.45852000 
19.80360000 2.78741000 6.45992000 
19.11580000 1.54791000 6.46409000 
19.84610000 0.33216000 6.46629000 
21.82870000 8.95493000 6.44601000 
21.13880000 7.71651000 6.44797000 
21.86830000 6.50026000 6.44724000 
21.17940000 5.26129000 6.45081000 
21.90930000 4.04524000 6.45217000 
21.22120000 2.80592000 6.45698000 
21.95140000 1.59001000 6.45967000 
21.26360000 0.35050800 6.46455000 
23.24640000 8.97300000 6.44103000 
23.97560000 7.75650000 6.44014000 
23.28590000 6.51800000 6.44304000 
24.01550000 5.30171000 6.44420000 
23.32690000 4.06269000 6.44881000 
24.05690000 2.84659000 6.45161000 
23.36890000 1.60727000 6.45715000 
24.09920000 0.39126800 6.46032000 
26.08400000 9.01058000 6.43467000 
25.39330000 7.77276000 6.43647000 
26.12260000 6.55623000 6.43749000 
25.43320000 5.31773000 6.44107000 
26.16300000 4.10140000 6.44371000 
25.47450000 2.86243000 6.44884000 
26.20470000 1.64623000 6.45216000 
25.51670000 0.40701100 6.45775000 
27.50180000 9.02511000 6.43202000 
27.54030000 6.57054000 6.43519000 
27.58070000 4.11552000 6.44140000 
27.62220000 1.66023000 6.44953000 
28.51240000 9.38147000 2.95207000 
28.47490000 6.92430000 2.94481000 
28.43530000 4.46778000 2.94114000 
28.39430000 2.01176000 2.94236000 
29.92970000 9.36900000 2.95636000 
30.61910000 8.13039000 2.95601000 
29.89220000 6.91203000 2.94951000 
30.58100000 5.67327000 2.95020000 
29.85270000 4.45567000 2.94570000 
30.54110000 3.21679000 2.94799000 
29.81170000 1.99975000 2.94626000 
30.50000000 0.76086700 2.94997000 
32.76200000 9.33917000 2.96802000 
32.03640000 8.11993000 2.96106000 
32.72570000 6.88144000 2.96125000 
31.99840000 5.66305000 2.95529000 
32.68720000 4.42444000 2.95636000 
31.95850000 3.20677000 2.95250000 
32.64700000 1.96810000 2.95469000 
31.91740000 0.75093500 2.95339000 
34.17930000 9.33038000 2.97285000 
34.86910000 8.09219000 2.97286000 
34.14300000 6.87299000 2.96629000 
34.83220000 5.63467000 2.96638000 
34.10450000 4.41628000 2.96103000 
34.79340000 3.17788000 2.96173000 
34.06440000 1.96014000 2.95844000 
34.75320000 0.72178600 2.95979000 
37.01140000 9.30528000 2.98376000 
36.28640000 8.08530000 2.97732000 
36.97620000 6.84730000 2.97677000 
36.24950000 5.62818000 2.97071000 
36.93890000 4.39007000 2.97016000 
36.21070000 3.17170000 2.96542000 
36.89980000 1.93358000 2.96526000 
36.17070000 0.71577300 2.96241000 
28.23090000 7.80835000 6.43310000 
28.27000000 5.35398000 6.43756000 
28.31070000 2.89911000 6.44452000 
28.35240000 0.44385000 6.45211000 
30.34060000 9.05779000 6.43130000 
29.64870000 7.82078000 6.43193000 
30.37810000 6.60397000 6.43409000 
29.68770000 5.36619000 6.43621000 
30.41760000 4.14953000 6.43896000 
29.72830000 2.91116000 6.44253000 
30.45850000 1.69457000 6.44496000 
29.77000000 0.45583600 6.44917000 
31.75850000 9.06839000 6.43119000 
32.48750000 7.85130000 6.43327000 
31.79590000 6.61427000 6.43381000 
32.52550000 5.39735000 6.43616000 
31.83520000 4.15961000 6.43798000 
32.56520000 2.94278000 6.44007000 
31.87600000 1.70452000 6.44284000 
32.60600000 0.48762600 6.44371000 
34.59830000 9.09608000 6.43437000 
33.90540000 7.85982000 6.43380000 
34.63460000 6.64260000 6.43584000 
33.94320000 5.40555000 6.43613000 
34.67290000 4.18845000 6.43783000 
33.98280000 2.95076000 6.43899000 
34.71280000 1.73365000 6.43970000 
34.02360000 0.49551900 6.44127000 
36.01620000 9.10305000 6.43528000 
36.74490000 7.88549000 6.43713000 
36.05240000 6.64914000 6.43641000 
36.78170000 5.43172000 6.43776000 
36.09060000 4.19465000 6.43761000 
36.82030000 2.97729000 6.43810000 
36.13030000 1.73967000 6.43834000 
36.86000000 0.52219000 6.43739000 
38.42860000 9.29970000 2.98730000 
39.11920000 8.06205000 2.98643000 
38.39350000 6.84222000 2.98033000 
39.08340000 5.60444000 2.97890000 
38.35620000 4.38542000 2.97339000 
39.04570000 3.14757000 2.97196000 
38.31730000 1.92922000 2.96777000 
39.00670000 0.69143400 2.96667000 
41.26100000 9.27860000 2.99459000 
40.53640000 8.05811000 2.98896000 
41.22700000 6.82068000 2.98701000 
40.50070000 5.60103000 2.98133000 
41.19080000 4.36348000 2.97899000 
40.46310000 3.14456000 2.97404000 
41.15290000 1.90701000 2.97183000 
40.42420000 0.68863700 2.96817000 
42.67830000 9.27555000 2.99597000 
43.36960000 8.03849000 2.99379000 
42.64430000 6.81825000 2.98844000 
43.33500000 5.58103000 2.98552000 
42.60810000 4.36155000 2.98036000 
43.29840000 3.12425000 2.97734000 
42.57030000 1.90541000 2.97300000 
43.26040000 0.66815600 2.97038000 
45.51140000 9.25755000 2.99888000 
44.78690000 8.03679000 2.99415000 
45.47830000 6.79991000 2.99097000 
44.75230000 5.57992000 2.98602000 
45.44310000 4.34291000 2.98250000 
44.71570000 3.12359000 2.97794000 
45.40620000 1.88652000 2.97469000 
44.67790000 0.66771500 2.97103000 
38.85640000 9.12631000 6.43898000 
38.16270000 7.89062000 6.43782000 
38.89150000 6.67286000 6.43891000 
38.19940000 5.43641000 6.43798000 
38.92870000 4.21875000 6.43827000 
38.23790000 2.98167000 6.43753000 
38.96740000 1.76400000 6.43663000 
38.27750000 0.52646800 6.43584000 
40.27430000 9.13033000 6.43939000 
41.00250000 7.91219000 6.44032000 
40.30930000 6.67632000 6.43911000 
41.03810000 5.45834000 6.43926000 
40.34640000 4.22180000 6.43804000 
41.07560000 3.00388000 6.43719000 
40.38490000 1.76681000 6.43579000 
41.11420000 0.54877300 6.43362000 
43.11450000 9.15004000 6.44124000 
42.42030000 7.91471000 6.44012000 
43.14850000 6.69636000 6.44019000 
42.45580000 5.46034000 6.43892000 
43.18460000 4.24213000 6.43816000 
42.49320000 3.00552000 6.43662000 
43.22220000 1.78730000 6.43478000 
42.53160000 0.55026600 6.43274000 
44.53230000 9.15188000 6.44040000 
45.25980000 7.93314000 6.44044000 
44.56620000 6.69758000 6.43942000 
45.29440000 5.47904000 6.43876000 
44.60220000 4.24287000 6.43744000 
45.33090000 3.02442000 6.43595000 
44.63970000 1.78777000 6.43410000 
45.36840000 0.56924700 6.43156000 
46.92860000 9.25636000 2.99817000 
47.62080000 8.01985000 2.99499000 
46.89560000 6.79940000 2.99053000 
47.58710000 5.56268000 2.98680000 
46.86040000 4.34292000 2.98238000 
47.55130000 3.10608000 2.97875000 
46.82360000 1.88689000 2.97490000 
47.51430000 0.65004400 2.97190000 
49.76260000 9.24056000 2.99744000 
49.03810000 8.01971000 2.99363000 
49.73030000 6.78332000 2.98993000 
49.00440000 5.56316000 2.98590000 
49.69580000 4.32657000 2.98212000 
48.96870000 3.10701000 2.97837000 
49.65970000 1.87032000 2.97512000 
48.93170000 0.65119300 2.97207000 
51.17990000 9.24063000 2.99524000 
51.87290000 8.00459000 2.99175000 
51.14760000 6.78408000 2.98827000 
51.83970000 5.54777000 2.98455000 
51.11310000 4.32787000 2.98111000 
51.80460000 3.09138000 2.97775000 
51.07700000 1.87196000 2.97480000 
51.76820000 0.63541400 2.97228000 
54.01480000 9.22627000 2.99223000 
53.29020000 8.00546000 2.98939000 
53.98300000 6.76946000 2.98592000 
53.25700000 5.54926000 2.98291000 
53.94900000 4.31300000 2.97963000 
53.22190000 3.09331000 2.97690000 
53.91340000 1.85690000 2.97431000 
53.18560000 0.63756000 2.97223000 
55.43220000 9.22710000 2.98925000 
55.40030000 6.77098000 2.98370000 
55.36630000 4.31506000 2.97825000 
55.33070000 1.85929000 2.97378000 
47.37200000 9.16896000 6.43969000 
46.67760000 7.93382000 6.43906000 
47.40510000 6.71491000 6.43853000 
46.71210000 5.47914000 6.43763000 
47.44030000 4.26042000 6.43649000 
46.74840000 3.02413000 6.43511000 
47.47690000 1.80545000 6.43316000 
46.78590000 0.56878900 6.43102000 
48.78980000 9.16932000 6.43763000 
49.51660000 7.95001000 6.43724000 
48.82280000 6.71461000 6.43684000 
49.55040000 5.49556000 6.43603000 
48.85780000 4.25961000 6.43526000 
49.58600000 3.04071000 6.43390000 
48.89440000 1.80434000 6.43245000 
49.62270000 0.58543100 6.43029000 
51.62880000 9.18459000 6.43487000 
50.93420000 7.94950000 6.43495000 
51.66110000 6.73009000 6.43446000 
50.96790000 5.49444000 6.43431000 
51.69560000 4.27528000 6.43349000 
51.00350000 3.03917000 6.43282000 
51.73160000 1.82012000 6.43142000 
51.04020000 0.58371000 6.42990000 
53.04640000 9.18401000 6.43200000 
53.77250000 7.96421000 6.43179000 
53.07870000 6.72883000 6.43223000 
53.80570000 5.50935000 6.43189000 
53.11310000 4.27350000 6.43197000 
53.84080000 3.05424000 6.43129000 
53.14900000 1.81803000 6.43068000 
53.87700000 0.59884200 6.42936000 
55.88450000 9.19812000 6.42810000 
55.19010000 7.96297000 6.42906000 
55.91650000 6.74313000 6.42916000 
55.22330000 5.50750000 6.42993000 
55.25820000 3.05196000 6.43015000 
55.29440000 0.59636500 6.42905000 
56.12570000 7.99143000 2.98615000 
56.09290000 5.53498000 2.98063000 
56.05820000 3.07882000 2.97570000 
56.02220000 0.62294600 2.97215000 
58.26810000 9.21347000 2.98521000 
57.54310000 7.99284000 2.98339000 
58.23640000 6.75713000 2.98068000 
57.51030000 5.53702000 2.97874000 
58.20260000 4.30099000 2.97636000 
57.47550000 3.08130000 2.97469000 
58.16730000 1.84506000 2.97305000 
57.43960000 0.62563700 2.97200000 
59.68550000 9.21464000 2.98194000 
60.37960000 7.97926000 2.97969000 
59.65380000 6.75900000 2.97830000 
60.34680000 5.52322000 2.97620000 
59.62000000 4.30340000 2.97487000 
60.31210000 3.06732000 2.97332000 
59.58460000 1.84781000 2.97244000 
60.27630000 0.61156100 2.97177000 
62.52240000 9.20117000 2.97764000 
61.79700000 7.98083000 2.97683000 
62.49060000 6.74534000 2.97511000 
61.76420000 5.52543000 2.97424000 
62.45680000 4.28954000 2.97286000 
61.72950000 3.06997000 2.97224000 
62.42140000 1.83381000 2.97158000 
61.69370000 0.61441000 2.97155000 
63.93990000 9.20234000 2.97436000 
64.63430000 7.96715000 2.97309000 
63.90810000 6.74719000 2.97270000 
64.60130000 5.51154000 2.97161000 
63.87420000 4.29194000 2.97132000 
64.56640000 3.05591000 2.97075000 
63.83880000 1.83653000 2.97090000 
64.53040000 0.60027600 2.97119000 
55.95040000 4.28799000 6.42989000 
55.98600000 1.83264000 6.42966000 
57.30210000 9.19704000 6.42488000 
58.02770000 7.97682000 6.42537000 
57.33400000 6.74137000 6.42676000 
58.06050000 5.52155000 6.42730000 
57.36790000 4.28568000 6.42834000 
58.09530000 3.06617000 6.42861000 
57.40340000 1.83001000 6.42895000 
58.13110000 0.61064700 6.42864000 
60.13930000 9.21057000 6.42059000 
59.44520000 7.97526000 6.42252000 
60.17100000 6.75509000 6.42356000 
59.47800000 5.51937000 6.42532000 
60.20480000 4.29961000 6.42629000 
59.51270000 3.06355000 6.42752000 
60.24020000 1.84407000 6.42805000 
59.54850000 0.60783300 6.42840000 
61.55680000 9.20935000 6.41730000 
62.28180000 7.98880000 6.41877000 
61.58840000 6.75318000 6.42116000 
62.31460000 5.53312000 6.42274000 
61.62220000 4.29716000 6.42479000 
62.34930000 3.07750000 6.42611000 
61.65760000 1.84129000 6.42742000 
62.38520000 0.62186700 6.42813000 
64.39300000 9.22286000 6.41311000 
63.69930000 7.98730000 6.41595000 
64.42480000 6.76690000 6.41806000 
63.73200000 5.53099000 6.42082000 
64.45870000 4.31109000 6.42285000 
63.76670000 3.07492000 6.42507000 
64.49420000 1.85538000 6.42664000 
63.80260000 0.61907800 6.42796000 
66.77780000 9.18848000 2.97027000 
66.05180000 7.96853000 2.97029000 
66.74560000 6.73314000 2.96955000 
66.01880000 5.51354000 2.96963000 
66.71140000 4.27770000 2.96923000 
65.98390000 3.05835000 2.96961000 
66.67570000 1.82217000 2.96991000 
65.94780000 0.60290800 2.97090000 
68.19540000 9.18927000 2.96724000 
68.88990000 7.95418000 2.96688000 
68.16320000 6.73462000 2.96723000 
68.85640000 5.49899000 2.96708000 
68.12890000 4.27971000 2.96769000 
68.82110000 3.04364000 2.96806000 
68.09310000 1.82449000 2.96918000 
68.78460000 0.58813100 2.97041000 
71.03410000 9.17447000 2.96399000 
70.30750000 7.95499000 2.96439000 
71.00140000 6.71961000 2.96454000 
70.27400000 5.50041000 2.96524000 
70.96660000 4.26450000 2.96575000 
70.23860000 3.04548000 2.96694000 
70.93020000 1.80917000 2.96813000 
70.20200000 0.59015300 2.97004000 
72.45180000 9.17448000 2.96161000 
73.14630000 7.93937000 2.96203000 
72.41900000 6.72028000 2.96262000 
73.11210000 5.48457000 2.96329000 
72.38410000 4.26569000 2.96439000 
73.07610000 3.02947000 2.96558000 
72.34770000 1.81066000 2.96740000 
73.03890000 0.57409100 2.96939000 
74.56400000 7.93915000 2.96030000 
74.52970000 5.48493000 2.96193000 
74.49360000 3.03024000 2.96464000 
74.45630000 0.57503300 2.96892000 
65.81040000 9.22188000 6.40999000 
66.53510000 8.00111000 6.41249000 
65.84210000 6.76523000 6.41575000 
66.56810000 5.54504000 6.41841000 
65.87600000 4.30887000 6.42142000 
66.60310000 3.08917000 6.42379000 
65.91150000 1.85282000 6.42608000 
66.63920000 0.63344500 6.42782000 
68.64560000 9.23593000 6.40652000 
67.95250000 8.00003000 6.40995000 
68.67770000 6.77952000 6.41309000 
67.98550000 5.54332000 6.41665000 
68.71200000 4.32340000 6.41974000 
68.02040000 3.08700000 6.42286000 
68.74790000 1.86754000 6.42548000 
68.05660000 0.63107200 6.42773000 
70.06290000 9.23556000 6.40399000 
70.78750000 8.01471000 6.40747000 
70.09510000 6.77846000 6.41118000 
70.82100000 5.55827000 6.41488000 
70.12940000 4.32180000 6.41856000 
70.85650000 3.10218000 6.42198000 
70.16530000 1.86559000 6.42506000 
70.89320000 0.64638300 6.42781000 
72.89720000 9.25080000 6.40234000 
72.20480000 8.01446000 6.40570000 
72.93000000 6.79397000 6.40985000 
72.23830000 5.55740000 6.41366000 
72.96490000 4.33758000 6.41777000 
72.27380000 3.10086000 6.42139000 
73.00150000 1.88158000 6.42497000 
72.31060000 0.64484600 6.42788000 
74.31450000 9.25151000 6.40105000 
74.34730000 6.79400000 6.40892000 
74.38220000 4.33707000 6.41728000 
74.41890000 1.88073000 6.42496000 
75.29130000 9.15808000 2.96013000 
75.25770000 6.70365000 2.96114000 
75.22210000 4.24885000 2.96312000 
75.18490000 1.79369000 2.96644000 
76.70910000 9.15680000 2.95885000 
77.40340000 7.92155000 2.95985000 
76.67540000 6.70301000 2.96004000 
77.36830000 5.46709000 2.96124000 
76.63970000 4.24870000 2.96222000 
77.33130000 3.01221000 2.96379000 
76.60240000 1.79383000 2.96576000 
77.29310000 0.55693700 2.96793000 
79.54920000 9.13806000 2.95985000 
78.82120000 7.91972000 2.95925000 
79.51460000 6.68398000 2.96046000 
78.78590000 5.46581000 2.96064000 
79.47790000 4.22941000 2.96199000 
78.74880000 3.01131000 2.96315000 
79.43970000 1.77439000 2.96481000 
78.71060000 0.55618400 2.96721000 
80.96700000 9.13486000 2.95988000 
81.66090000 7.89931000 2.96110000 
80.93230000 6.68135000 2.96037000 
81.62470000 5.44506000 2.96151000 
80.89550000 4.22723000 2.96163000 
81.58660000 2.99032000 2.96276000 
80.85720000 1.77245000 2.96407000 
81.54730000 0.53510400 2.96541000 
83.80730000 9.11288000 2.96315000 
83.07870000 7.89513000 2.96157000 
83.77150000 6.65897000 2.96254000 
83.04240000 5.44137000 2.96161000 
83.73370000 4.20450000 2.96223000 
83.00410000 2.98695000 2.96224000 
83.69430000 1.74953000 2.96268000 
82.96480000 0.53185400 2.96413000 
75.03900000 8.03070000 6.40548000 
75.07330000 5.57394000 6.41358000 
75.10950000 3.11766000 6.42161000 
75.14710000 0.66180400 6.42847000 
77.14790000 9.26868000 6.40262000 
76.45620000 8.03181000 6.40519000 
77.18150000 6.81148000 6.41026000 
76.49060000 5.57444000 6.41354000 
77.21740000 4.35486000 6.41849000 
76.52690000 3.11772000 6.42182000 
77.25480000 1.89875000 6.42606000 
76.56450000 0.66164100 6.42893000 
78.56510000 9.27103000 6.40325000 
79.28970000 8.05043000 6.40859000 
78.59880000 6.81319000 6.41101000 
79.32500000 5.59341000 6.41647000 
78.63470000 4.35605000 6.41930000 
79.36230000 3.13698000 6.42418000 
78.67220000 1.89960000 6.42686000 
79.40080000 0.68106800 6.43061000 
81.39780000 9.29099000 6.40908000 
80.70690000 8.05354000 6.41038000 
81.43250000 6.83355000 6.41625000 
80.74230000 5.59596000 6.41822000 
81.46940000 4.37677000 6.42367000 
80.77960000 3.13911000 6.42572000 
81.50790000 1.92057000 6.43005000 
80.81820000 0.68298200 6.43178000 
82.81500000 9.29565000 6.41194000 
83.53980000 8.07547000 6.41813000 
82.84970000 6.83766000 6.41912000 
83.57630000 5.61834000 6.42510000 
82.88670000 4.38041000 6.42627000 
83.61470000 3.16184000 6.43116000 
82.92530000 1.92392000 6.43209000 
83.65430000 0.70591100 6.43530000 
85.22520000 9.10698000 2.96402000 
85.91840000 7.87094000 2.96487000 
85.18930000 6.65355000 2.96309000 
85.88100000 5.41672000 2.96331000 
85.15140000 4.19944000 2.96208000 
85.84170000 2.96197000 2.96166000 
85.11190000 1.74467000 2.96154000 
85.80130000 0.50674900 2.96084000 
88.06520000 9.08085000 2.96774000 
87.33630000 7.86362000 2.96562000 
88.02820000 6.62683000 2.96557000 
87.29870000 5.40976000 2.96348000 
87.98920000 4.17226000 2.96238000 
87.25930000 2.95526000 2.96081000 
87.94880000 1.71722000 2.95893000 
87.21890000 0.50013600 2.95870000 
89.48310000 9.07152000 2.96816000 
90.17540000 7.83478000 2.96798000 
89.44600000 6.61784000 2.96573000 
90.13680000 5.38031000 2.96423000 
89.40690000 4.16353000 2.96174000 
90.09640000 2.92539000 2.95896000 
89.36630000 1.70863000 2.95706000 
90.05510000 0.47009800 2.95366000 
92.32230000 9.04053000 2.96910000 
91.59320000 7.82368000 2.96754000 
92.28410000 6.58613000 2.96594000 
91.55450000 5.36946000 2.96343000 
92.24410000 4.13124000 2.96019000 
91.51400000 2.91470000 2.95729000 
92.20270000 1.67602000 2.95289000 
91.47260000 0.45948400 2.95081000 
85.64710000 9.31933000 6.42186000 
84.95710000 8.08131000 6.42204000 
85.68300000 6.86187000 6.42850000 
84.99360000 5.62372000 6.42886000 
85.72110000 4.40510000 6.43433000 
85.03210000 3.16688000 6.43434000 
85.76080000 1.94892000 6.43802000 
85.07180000 0.71075500 6.43754000 
87.06440000 9.32699000 6.42642000 
87.78980000 8.10747000 6.43326000 
87.10030000 6.86913000 6.43319000 
87.82740000 5.65047000 6.43925000 
87.13850000 4.41201000 6.43863000 
87.86690000 3.19409000 6.44286000 
87.17820000 1.95560000 6.44141000 
87.90770000 0.73821900 6.44330000 
89.89660000 9.35519000 6.43826000 
89.20710000 8.11670000 6.43833000 
89.93360000 6.89804000 6.44494000 
89.24470000 5.65941000 6.44429000 
89.97280000 4.44153000 6.44916000 
89.28430000 3.20280000 6.44726000 
90.01350000 1.98553000 6.44957000 
89.32520000 0.74680300 6.44654000 
91.31380000 9.36639000 6.44296000 
92.04000000 8.14775000 6.44993000 
91.35100000 6.90901000 6.45000000 
92.07870000 5.69119000 6.45550000 
91.39020000 4.45231000 6.45399000 
92.11920000 3.23515000 6.45688000 
91.43100000 1.99618000 6.45359000 
92.16080000 0.77944700 6.45363000 
93.74010000 9.02732000 2.96739000 
94.43120000 7.78976000 2.96592000 
93.70180000 6.57314000 2.96438000 
94.39160000 5.33486000 2.96117000 
93.66170000 4.11844000 2.95834000 
94.35050000 2.87965000 2.95354000 
93.62030000 1.66334000 2.95037000 
94.30840000 0.42425400 2.94501000 
96.57810000 8.99131000 2.96285000 
95.84900000 7.77472000 2.96305000 
96.53890000 6.53642000 2.96027000 
95.80930000 5.32003000 2.95860000 
96.49810000 4.08118000 2.95405000 
95.76810000 2.86498000 2.95098000 
96.45620000 1.62578000 2.94538000 
95.72600000 0.40966400 2.94223000 
97.99580000 8.97432000 2.95846000 
98.68590000 7.73606000 2.95640000 
97.95660000 6.51971000 2.95658000 
98.64560000 5.28086000 2.95281000 
97.91570000 4.06470000 2.95095000 
98.60390000 2.82546000 2.94582000 
97.87370000 1.60946000 2.94276000 
98.56160000 0.37003200 2.93743000 
100.83300000 8.93394000 2.94963000 
100.10400000 7.71767000 2.95162000 
100.79300000 6.47891000 2.94898000 
100.06300000 5.26282000 2.94889000 
100.75200000 4.02361000 2.94478000 
100.02100000 2.80769000 2.94286000 
100.70900000 1.56823000 2.93810000 
99.97910000 0.35239900 2.93543000 
102.25100000 8.91404000 2.94437000 
102.21100000 6.45950000 2.94445000 
102.16900000 4.00463000 2.94126000 
102.12700000 1.54952000 2.93582000 
93.45740000 8.16075000 6.45421000 
94.18480000 6.94299000 6.46022000 
93.49610000 5.70404000 6.45993000 
94.22480000 4.48697000 6.46350000 
93.53660000 3.24786000 6.46097000 
94.26630000 2.03127000 6.46150000 
93.57830000 0.79210300 6.45699000 
96.29100000 8.19679000 6.46208000 
95.60220000 6.95780000 6.46351000 
96.33060000 5.74079000 6.46772000 
95.64230000 4.50164000 6.46683000 
96.37170000 3.28515000 6.46805000 
95.68380000 2.04586000 6.46460000 
96.41380000 0.82966000 6.46302000 
97.70850000 8.21344000 6.46391000 
98.43660000 6.99644000 6.46862000 
97.74810000 5.75726000 6.46970000 
98.47730000 4.54081000 6.47172000 
97.78920000 3.30147000 6.47014000 
98.51910000 2.08537000 6.46932000 
97.83130000 0.84592200 6.46530000 
100.54300000 8.25379000 6.46654000 
99.85400000 7.01453000 6.46923000 
100.58300000 5.79804000 6.47204000 
99.89470000 4.55865000 6.47249000 
100.62400000 3.34255000 6.47266000 
99.93660000 2.10303000 6.47055000 
100.66700000 0.88715500 6.46864000 
101.96000000 8.27333000 6.46639000 
102.00000000 5.81718000 6.47179000 
102.04200000 3.36137000 6.47280000 
102.08400000 0.90581000 6.46969000 
102.94000000 7.67547000 2.94296000 
102.89900000 5.22044000 2.94163000 
102.85700000 2.76523000 2.93749000 
102.81500000 0.30992200 2.93217000 
105.08800000 8.87059000 2.93621000 
104.35800000 7.65484000 2.93846000 
105.04700000 6.41603000 2.93687000 
104.31700000 5.20042000 2.93776000 
105.00500000 3.96119000 2.93507000 
104.27500000 2.74565000 2.93467000 
104.96300000 1.50611000 2.93165000 
104.23200000 0.29054100 2.93064000 
106.50500000 8.84885000 2.93253000 
107.19500000 7.61037000 2.93179000 
106.46500000 6.39502000 2.93315000 
107.15400000 5.15606000 2.93130000 
106.42300000 3.94079000 2.93182000 
107.11100000 2.70140000 2.92934000 
106.38000000 1.48608000 2.92933000 
107.06700000 0.24633300 2.92708000 
109.34300000 8.80340000 2.92772000 
108.61300000 7.58832000 2.92872000 
109.30200000 6.34968000 2.92720000 
108.57100000 5.13472000 2.92795000 
109.26000000 3.89555000 2.92566000 
108.52800000 2.68058000 2.92626000 
109.21600000 1.44091000 2.92389000 
108.48500000 0.22573300 2.92469000 
110.76100000 8.78026000 2.92554000 
111.45100000 7.54191000 2.92382000 
110.72000000 6.32722000 2.92409000 
111.40900000 5.08830000 2.92153000 
110.67700000 3.87369000 2.92208000 
111.36500000 2.63415000 2.91925000 
110.63300000 1.41941000 2.92037000 
111.32000000 0.17931200 2.91804000 
102.68800000 7.05669000 6.46987000 
102.73000000 4.60098000 6.47304000 
102.77200000 2.14547000 6.47203000 
104.79400000 8.31672000 6.46698000 
104.10600000 7.07700000 6.46939000 
104.83500000 5.86059000 6.47166000 
104.14700000 4.62079000 6.47265000 
104.87700000 3.40476000 6.47318000 
104.18900000 2.16495000 6.47237000 
104.91900000 0.94920700 6.47168000 
106.21100000 8.33813000 6.46718000 
106.93900000 7.12142000 6.47022000 
106.25200000 5.88136000 6.47156000 
106.98100000 4.66509000 6.47334000 
106.29400000 3.42502000 6.47347000 
107.02400000 2.20917000 6.47414000 
106.33700000 0.96919400 6.47289000 
109.04400000 8.38357000 6.47000000 
108.35700000 7.14321000 6.47106000 
109.08500000 5.92665000 6.47384000 
108.39900000 4.68625000 6.47429000 
109.12800000 3.47020000 6.47632000 
108.44100000 2.22989000 6.47570000 
109.17200000 1.01434000 6.47701000 
110.46100000 8.40644000 6.47187000 
111.18900000 7.18961000 6.47523000 
110.50300000 5.94892000 6.47576000 
111.23200000 4.73264000 6.47891000 
110.54500000 3.49195000 6.47871000 
111.27500000 2.27629000 6.48136000 
110.58900000 1.03580000 6.48005000 
113.60000000 8.73279000 2.92189000 
112.86900000 7.51821000 2.92119000 
113.55800000 6.27948000 2.91804000 
112.82700000 5.06512000 2.91786000 
113.51500000 3.82572000 2.91429000 
112.78300000 2.61139000 2.91500000 
113.46900000 1.37131000 2.91182000 
112.73800000 0.15672200 2.91376000 
115.01800000 8.70792000 2.91991000 
115.70800000 7.46926000 2.91614000 
114.97600000 6.25490000 2.91477000 
115.66400000 5.01558000 2.91045000 
114.93200000 3.80146000 2.90999000 
115.61900000 2.56141000 2.90593000 
114.88700000 1.34726000 2.90700000 
115.57300000 0.10659400 2.90416000 
117.85600000 8.65816000 2.91633000 
117.12500000 7.44349000 2.91376000 
117.81400000 6.20414000 2.90903000 
117.08200000 4.98991000 2.90697000 
117.76900000 3.74985000 2.90230000 
117.03700000 2.53586000 2.90164000 
117.72300000 1.29516000 2.89814000 
116.99000000 0.08111460 2.89959000 
119.27400000 8.63170000 2.91505000 
119.96200000 7.39219000 2.91049000 
119.23100000 6.17749000 2.90702000 
119.91800000 4.93735000 2.90230000 
119.18700000 3.72315000 2.89959000 
119.87300000 2.48240000 2.89581000 
119.14000000 1.26847000 2.89500000 
119.82500000 0.02731620 2.89332000 
113.29300000 8.45394000 6.47705000 
112.60600000 7.21310000 6.47781000 
113.33500000 5.99664000 6.48169000 
112.64900000 4.75569000 6.48205000 
113.37900000 3.53990000 6.48586000 
112.69300000 2.29900000 6.48517000 
113.42400000 1.08388000 6.48829000 
114.71000000 8.47859000 6.47959000 
115.43800000 7.26206000 6.48366000 
114.75200000 6.02107000 6.48495000 
115.48100000 4.80521000 6.48951000 
114.79600000 3.56408000 6.48996000 
115.52700000 2.34895000 6.49410000 
114.84100000 1.10790000 6.49300000 