file written by TR
1.000000
27.677713 0.000000 0.000000
13.838857 23.969603 0.000000
0.000000 0.000000 15.000000
Type1
508
Cartesian
0.765388 1.193600 2.895510
-0.000001 -0.000003 2.893120
3.059030 4.775870 2.927230
2.295440 3.581290 2.913360
2.946610 2.321640 2.909150
2.181760 1.127700 2.900180
5.345600 8.362610 2.972900
4.585450 7.166040 2.958430
5.237450 5.906470 2.952010
4.475350 4.710960 2.936090
5.126750 3.451290 2.932870
4.362920 2.256690 2.919460
5.014110 0.997085 2.921530
7.625780 11.953700 2.992700
6.867880 10.755800 2.990910
7.520790 9.496230 2.989590
6.761940 8.298810 2.979670
7.414400 7.039270 2.976900
6.653740 5.842810 2.962390
7.305630 4.583250 2.960730
6.543010 3.387820 2.945930
7.194570 2.128330 2.947740
6.430400 0.933700 2.936120
9.042190 11.890000 2.992450
8.937180 9.433120 2.993840
8.830730 6.976830 2.985430
8.721900 4.521430 2.972820
8.610820 2.066890 2.962340
9.695640 10.630800 2.996980
9.590460 8.173940 2.995380
9.483510 5.717610 2.985750
9.374160 3.262210 2.974350
9.262930 0.807826 2.966940
11.871300 11.765000 2.994430
11.112200 10.567800 2.997890
11.766600 9.309360 3.003510
11.006900 8.112170 2.999660
11.661000 6.853650 3.001950
10.899900 5.657050 2.993390
11.553200 4.398360 2.994430
10.790500 3.202530 2.984880
11.443200 1.943760 2.986980
10.679200 0.748498 2.979500
13.288100 11.701500 2.993390
13.943800 10.444100 3.001950
13.183300 9.247390 3.003420
13.838900 7.989860 3.007010
13.077599 6.793390 3.003420
13.732300 5.535510 3.003510
12.969700 4.339540 2.997890
13.623300 3.081280 2.996990
12.859600 1.885780 2.992450
13.512600 0.627300 2.992700
16.122499 11.577000 2.995380
15.360700 10.381200 2.999660
16.017700 9.124730 3.003510
15.255700 7.928820 3.003420
15.911800 6.671890 3.001940
15.148900 5.476220 2.999660
15.803600 4.218630 2.995380
15.039800 3.023280 2.993840
15.693300 1.765090 2.989580
14.929000 0.569895 2.990910
17.539600 11.513200 2.993840
18.197599 10.257500 2.996990
17.434700 9.062290 2.997890
18.091999 7.806200 2.994430
17.328600 6.611060 2.993390
17.984400 5.354160 2.985750
17.220200 4.159240 2.985430
17.874300 2.901430 2.976890
17.109800 1.706620 2.979670
17.762699 0.448132 2.972900
20.378100 11.388699 2.992700
19.614800 10.193800 2.992450
20.272800 8.938250 2.986980
19.509001 7.743560 2.984880
20.165501 6.487160 2.974350
19.401100 5.292680 2.972830
20.055700 4.035250 2.960730
19.290800 2.840910 2.962390
19.943800 1.582530 2.952010
19.179001 0.388092 2.958430
21.795401 11.324400 2.991140
22.453501 10.068900 2.984040
21.689899 8.874250 2.979500
22.346701 7.618030 2.966940
21.582300 6.423750 2.962340
22.237200 5.166520 2.947740
21.472300 3.972510 2.945930
22.125401 2.714250 2.932870
21.360201 1.520290 2.936090
22.012199 0.261259 2.927230
24.633499 11.199300 2.987000
23.870600 10.004300 2.980220
24.527300 8.747870 2.966760
23.763599 7.553360 2.958530
24.418501 6.296080 2.942710
23.653900 5.102050 2.936120
24.307199 3.843810 2.921530
23.541901 2.650060 2.919460
24.193800 1.391030 2.909150
23.428499 0.197258 2.913360
26.050501 11.135000 2.986650
26.706499 9.877990 2.973710
25.944099 8.682770 2.962990
26.598801 7.425150 2.947400
25.835199 6.230650 2.936280
26.488399 4.972260 2.921430
25.723700 3.778340 2.913380
26.375601 2.519240 2.902470
25.610201 1.325610 2.900180
26.261299 0.066052 2.895510
9.147450 14.346900 2.979500
9.906990 15.543800 2.966940
9.800580 13.087600 2.986980
12.195300 19.128700 2.921530
11.432300 17.933901 2.936120
12.084800 16.674801 2.947740
11.323400 15.479000 2.962340
11.976900 14.220200 2.974350
11.217100 13.023500 2.984880
14.489900 22.709999 2.895510
13.724600 21.516300 2.900180
14.376200 20.256901 2.909150
13.611700 19.062901 2.919460
14.264399 17.804100 2.932870
13.501300 16.609301 2.945930
14.155200 15.351100 2.960730
13.393600 14.155500 2.972830
14.048700 12.897800 2.985750
16.671699 23.837700 2.902470
15.906300 22.643999 2.900200
16.557800 21.384800 2.909100
15.792600 20.191000 2.913360
16.445400 18.932501 2.927230
15.681000 17.738300 2.936090
16.335300 16.480600 2.952010
15.572000 15.285900 2.962390
16.227800 14.028900 2.976890
15.465600 12.833500 2.985430
18.087999 23.772699 2.913380
17.974300 21.319700 2.919580
17.862000 18.867300 2.936230
17.752100 16.415501 2.958430
18.408300 15.158900 2.972900
17.644899 13.964200 2.979670
18.302401 12.708300 2.989580
18.739599 22.513399 2.921430
18.627001 20.061100 2.932640
18.516399 17.609699 2.951740
20.921000 23.644100 2.942710
20.156000 22.449900 2.936280
20.808701 21.191401 2.947400
20.043600 19.997299 2.946330
20.697800 18.739700 2.960050
19.933201 17.545500 2.962780
20.589300 16.288900 2.975830
19.825300 15.094400 2.979730
20.483101 13.838700 2.988470
19.719700 12.644000 2.990910
22.337299 23.582701 2.958530
22.990000 22.324101 2.966760
22.225100 21.129600 2.962990
22.879000 19.871700 2.973710
22.114500 18.677099 2.973760
22.770201 17.420300 2.984260
22.006300 16.225500 2.985880
22.663700 14.969600 2.992650
21.900299 13.774700 2.993170
22.558599 12.519200 2.993370
25.170799 23.459499 2.984040
24.406401 22.264500 2.980220
25.059900 21.006300 2.987000
24.295601 19.811300 2.986650
24.950501 18.553900 2.993740
24.187000 17.358700 2.995000
24.843500 16.102100 2.999370
24.080799 14.906600 2.999470
24.738300 13.650600 2.998250
23.975901 12.455300 2.994990
26.587200 23.401600 2.991140
27.240400 22.143200 2.993370
26.476400 20.947901 2.994990
27.130400 19.689899 2.998250
26.367201 18.494200 3.001500
27.022499 17.236700 3.003460
26.260401 16.040701 3.005530
26.916700 14.783800 3.003460
26.155399 13.587600 3.001500
26.812000 12.330900 2.993740
28.883953 11.009400 2.984260
28.123299 9.813171 2.973760
28.777493 8.554990 2.960050
28.015465 7.359600 2.946340
28.668459 6.100890 2.932640
27.904909 4.906350 2.919580
28.556765 3.647110 2.909100
27.791990 2.453200 2.900200
30.300573 10.945300 2.985880
30.954184 9.686400 2.975830
30.194023 8.489910 2.962780
30.846794 7.230800 2.951740
30.084904 6.035300 2.936230
33.129211 10.819500 2.988470
32.370625 9.622060 2.979730
29.420843 23.281000 2.988470
28.656773 22.085600 2.993170
29.309923 20.827101 2.992650
28.546865 19.631300 2.999470
29.200773 18.373100 2.999370
28.439150 17.176701 3.005530
29.093943 15.918700 3.003460
28.333574 14.721900 3.005530
28.988863 13.464100 2.999370
28.228880 12.267300 2.995000
30.837183 23.222700 2.979730
31.489664 21.963900 2.975830
30.726284 20.768400 2.985880
31.379023 19.509501 2.984260
30.617233 18.313299 2.995000
31.270594 17.054501 2.993740
30.510544 15.857400 3.001500
31.164463 14.598700 2.998250
30.405523 13.401200 2.999470
31.059574 12.142500 2.992650
33.669975 23.098700 2.951740
32.905945 21.903799 2.962780
33.557854 20.644501 2.960050
32.795322 19.448900 2.973760
33.447582 18.189501 2.973710
32.686993 16.992901 2.986650
33.339794 15.733600 2.987000
32.580933 14.536100 2.994990
33.234123 13.276700 2.993370
32.476051 12.078900 2.993170
35.086254 23.036600 2.936230
35.737675 21.777201 2.932640
34.974102 20.582300 2.946340
35.625645 19.322700 2.947400
34.863873 18.126900 2.962990
35.515946 16.867300 2.966760
34.756142 15.670400 2.980230
35.408794 14.410900 2.984040
34.650505 13.213200 2.991140
37.918514 22.907301 2.909100
37.153954 21.713200 2.919590
37.805115 20.453501 2.921430
37.041924 19.258600 2.936280
37.693611 17.999001 2.942710
36.932262 16.803200 2.958530
39.334915 22.841999 2.900200
39.985912 21.582300 2.902470
39.221413 20.388201 2.913380
-0.000005 0.000001 6.506880
2.718970 2.584840 6.490900
2.067390 1.325570 6.499800
2.832790 0.131932 6.497530
4.677520 6.359900 6.448260
4.023140 5.102340 6.463770
4.788160 3.908450 6.467360
4.135430 2.649930 6.480420
4.900760 1.456160 6.478570
4.249150 0.196925 6.486620
6.644230 10.130900 6.411530
5.986500 8.875190 6.420270
6.750440 7.680700 6.424170
6.094330 6.424130 6.437220
6.858960 5.229920 6.439950
6.204730 3.972300 6.453670
6.969810 2.778240 6.452600
6.317150 1.519670 6.463720
7.082150 0.325497 6.457290
8.719780 11.450400 6.406630
8.061459 10.194900 6.406830
8.824800 9.000020 6.407350
8.167440 7.744070 6.414120
8.931330 6.549330 6.415740
8.275680 5.292460 6.426240
9.040190 4.097910 6.426290
8.386290 2.840050 6.437010
9.151110 1.645540 6.433240
8.498470 0.386915 6.441470
10.137000 11.514300 6.405010
10.899500 10.319000 6.401750
10.241900 9.062960 6.400530
11.004700 7.867520 6.400630
10.348200 6.610940 6.405000
11.111700 5.415700 6.406260
10.456800 4.158290 6.413350
11.221000 2.963270 6.413000
10.567500 1.705110 6.419780
11.332000 0.510128 6.415960
12.973100 11.638800 6.406260
12.316500 10.382000 6.398500
13.077900 9.185840 6.396540
12.421600 7.928910 6.394470
13.183600 6.732860 6.396540
12.528400 5.475420 6.398500
13.291500 4.279730 6.401750
12.637500 3.021720 6.405010
13.401500 1.826370 6.406630
12.748400 0.567970 6.408860
14.390000 11.702400 6.405000
15.150000 10.505500 6.400630
14.494701 9.247760 6.394470
15.255100 8.050919 6.396540
14.600300 6.792940 6.394470
15.361900 5.596550 6.400630
14.708000 4.338270 6.400530
15.471100 3.142480 6.407350
14.817900 1.883960 6.406830
15.582000 0.688620 6.411530
17.220699 11.827100 6.407350
16.566700 10.568400 6.400530
17.325600 9.370920 6.401750
16.671699 8.112180 6.398500
17.431700 6.915150 6.406260
16.778400 5.656310 6.405000
17.540199 4.460080 6.415740
16.887400 3.201160 6.414120
17.650801 2.005690 6.424170
16.998301 0.746847 6.420270
18.637199 11.890700 6.406830
19.395300 10.692900 6.406630
18.742100 9.433540 6.405010
19.500900 8.236050 6.413000
18.848101 6.976700 6.413350
19.608700 5.780080 6.426290
18.956499 4.520700 6.426240
19.719000 3.325060 6.439950
19.067100 2.065770 6.437220
19.831101 0.870898 6.448260
20.811701 10.756400 6.408860
21.569900 9.558720 6.415960
20.917299 8.299180 6.419780
21.677099 7.102320 6.433240
21.025000 5.842720 6.437010
21.786800 4.646930 6.452600
21.135200 3.387310 6.453670
21.898800 2.192450 6.467360
21.247400 0.932976 6.463770
23.639401 10.882000 6.413020
22.986300 9.622730 6.420500
23.745899 8.425850 6.433060
23.093399 7.166440 6.441470
23.854799 5.970580 6.457290
23.203100 4.710990 6.463720
23.966299 3.516120 6.478570
23.315100 2.256430 6.480420
24.079701 1.062280 6.490900
25.056000 10.946100 6.415120
25.815800 9.749370 6.425650
25.162300 8.490630 6.437660
25.923599 7.294840 6.452260
25.271099 6.035740 6.463880
26.034201 4.840890 6.478470
25.382601 3.581420 6.486620
26.147101 2.387310 6.497530
25.496000 1.127630 6.499800
27.232401 9.814110 6.427180
27.340200 7.360330 6.454070
27.450600 4.906750 6.480540
27.563499 2.453320 6.499820
8.614650 13.900800 6.415960
7.956560 12.645200 6.408860
10.579700 17.673500 6.457290
9.924690 16.416300 6.441470
10.688400 15.221700 6.433240
10.031800 13.965300 6.419780
10.794600 12.770300 6.413000
12.536700 21.450399 6.497530
11.884800 20.191299 6.486620
12.649500 18.997299 6.478570
11.996300 17.739000 6.463720
12.760000 16.544500 6.452600
12.105300 15.286800 6.437010
12.867700 14.091600 6.426290
12.211600 12.834601 6.413350
14.604300 22.775999 6.504490
13.953100 21.516399 6.499800
14.717900 20.322500 6.490900
14.066100 19.063299 6.480410
14.829600 17.868700 6.467360
14.176600 16.610001 6.453670
14.938600 15.414600 6.439950
14.284400 14.156400 6.426240
15.045100 12.960200 6.415740
16.020599 22.841900 6.499820
16.785500 21.648001 6.490850
16.134300 20.388300 6.486640
16.897900 19.193701 6.472770
16.246000 17.934300 6.463770
17.007900 16.738800 6.448260
16.355200 15.479700 6.437220
17.115299 14.283200 6.424170
16.461700 13.024400 6.414120
18.201799 21.712900 6.480540
18.314200 19.258600 6.463910
18.424299 16.803600 6.441570
18.853001 22.972500 6.478470
18.965599 20.518299 6.467130
19.076300 18.063101 6.447990
19.184500 15.607000 6.427100
18.531799 14.347500 6.420270
19.290400 13.150100 6.411530
20.269300 23.035900 6.463880
21.033400 21.841299 6.452260
20.381901 20.581800 6.454070
21.144501 19.386299 6.439270
20.492600 18.126801 6.437610
21.253300 16.930300 6.423110
20.600800 15.670800 6.420330
21.359600 14.473400 6.410420
20.706699 13.213900 6.409090
21.464600 12.015900 6.407300
23.101801 23.161800 6.433060
22.449699 21.902700 6.437660
23.212999 20.707399 6.425650
22.560801 19.448200 6.427180
23.322399 18.252001 6.414250
22.669600 16.992800 6.414570
23.429300 15.795700 6.404620
22.775999 14.536500 6.406160
23.534500 13.338800 6.403020
22.881100 12.079600 6.407550
24.518101 23.221100 6.420500
25.282101 22.025900 6.413020
24.629299 20.767099 6.415120
25.392099 19.571199 6.405570
24.738800 18.312599 6.406610
25.499901 17.115999 6.398060
24.845800 15.857400 6.400340
25.605499 14.660200 6.396490
24.951000 13.401800 6.402110
25.710199 12.204600 6.405570
27.351500 23.342300 6.407300
26.698401 22.083799 6.407550
27.462200 20.888300 6.403010
26.808500 19.630100 6.402110
27.571100 18.434099 6.396490
26.916401 17.176201 6.396580
27.022200 14.722200 6.396580
27.126900 12.268100 6.406610
27.887562 11.071800 6.414250
27.994110 8.618490 6.439270
28.103247 6.165540 6.467130
28.215008 3.712660 6.490850
28.328703 1.259650 6.504490
29.304462 11.136100 6.414570
30.066704 9.940700 6.423110
29.410873 8.683720 6.437610
30.174143 7.489010 6.447990
29.519854 6.231250 6.463910
30.284233 5.037140 6.472770
29.631493 3.778560 6.486640
32.141293 11.261300 6.410420
31.483723 10.005400 6.420330
32.247143 8.810730 6.427100
31.590963 7.554130 6.441570
33.558533 11.325600 6.409090
27.677719 15.979700 6.392990
27.782660 13.525500 6.398050
28.767874 23.399700 6.409090
29.532204 22.204500 6.410420
28.878653 20.946301 6.406160
29.642494 19.750999 6.404610
28.987753 18.493401 6.400340
29.750643 17.297701 6.398060
29.094544 16.040800 6.396580
29.856564 14.844900 6.396490
29.199593 13.588400 6.400340
29.961334 12.392600 6.404620
31.601543 23.521500 6.427100
30.948614 22.263001 6.420330
31.713173 21.068199 6.423110
31.059084 19.810400 6.414570
31.823204 18.615499 6.414250
31.167473 17.358500 6.406610
31.930874 16.163401 6.405570
31.273604 14.907300 6.402110
32.036453 13.712100 6.403010
31.378454 12.456400 6.406160
33.017872 23.581499 6.441570
33.782692 22.387100 6.447990
33.129662 21.128700 6.437610
33.894531 19.934401 6.439270
33.239933 18.676901 6.427170
34.004322 17.482500 6.425650
33.347874 16.226101 6.415120
34.111622 15.031400 6.413020
33.453663 13.775800 6.407550
34.217003 12.580900 6.407300
35.851025 23.708300 6.472770
35.199074 22.449301 6.463910
35.964294 21.255400 6.467130
35.311112 19.997101 6.454070
36.076096 18.803101 6.452260
35.421173 17.545900 6.437660
36.185501 16.351601 6.433060
35.528732 15.095400 6.420490
37.267353 23.772301 6.486640
38.032715 22.578600 6.490850
37.380753 21.319500 6.480540
38.146011 20.125799 6.478470
37.492752 18.867600 6.463880
40.100212 23.903500 6.504490
39.449112 22.643999 6.499820
