POSCAR file written by OVITO
1
14.9610044 -1.3087511e-06 1.3612254e-06
-2.2668541e-06 25.934742 1.204964e-05
1.673805e-06 8.5544873e-06 18.391098
Ty 
296 
Cartesian
0.6072464 24.6478081 7.4960838
0.4046895 22.1947765 7.4962015
0.2028084 19.741581 7.4963317
6.36481e-04 17.2884464 7.4963689
2.8311274 25.6994 7.4961238
2.0209632 24.5343952 7.4961314
2.629009 23.2464104 7.4961577
1.8188041 22.0810623 7.4961968
2.4269874 20.7929917 7.4962707
1.616851 19.6275044 7.4962926
2.2246809 18.3398209 7.4963317
1.4141835 17.1744709 7.4963341
2.0225816 15.8869438 7.496295
1.2120515 14.7213116 7.4962716
1.820369 13.4333668 7.4962855
1.009984 12.2676973 7.496274
1.6183925 10.9799024 7.4963079
0.807851 9.8145733 7.4963327
1.4158597 8.5265742 7.4963298
0.605883 7.3612971 7.4963565
1.2136986 6.073195 7.4962907
0.4037246 4.9079766 7.4962554
1.0116631 3.6197398 7.4961634
0.2013537 2.4548457 7.4961143
0.8094163 1.1664332 7.4960976
-7.3009629e-04 0.0014327 7.4959965
4.2445984 25.5852833 7.4962387
4.853149 24.2975598 7.4962034
4.0426259 23.1324215 7.4962745
4.6507101 21.8446446 7.4962554
3.840811 20.67906 7.4962955
4.4487429 19.3911533 7.4962793
3.6384399 18.2256107 7.4962754
4.2465706 16.937893 7.496213
3.4361491 15.7727366 7.4962449
4.0443368 14.4849253 7.4961624
3.2338176 13.3195572 7.4962077
3.8418828 12.0313396 7.4961715
3.0318277 10.8659554 7.4962325
3.6398814 9.5779419 7.4962669
2.8295889 8.4129601 7.4963117
3.4377637 7.1249585 7.4963193
2.6277077 5.9597564 7.4963308
3.2354961 4.6713176 7.496275
2.4256425 3.5060871 7.4962187
3.0335348 2.2177224 7.4961691
2.2231102 1.052943 7.4961214
7.0771275 25.3492489 7.4963193
6.2666016 24.1838131 7.4963022
6.8748078 22.8959924 7.4963274
6.0642705 21.7305775 7.4963813
6.6723366 20.4428196 7.4963184
5.8625094 19.2772274 7.4963336
6.4703775 17.9891586 7.4962225
5.6603127 16.823803 7.4962192
6.2685542 15.5358839 7.4961076
5.4580236 14.371047 7.4961252
6.0659061 13.0827961 7.4960594
5.2555485 11.917656 7.4961019
5.8636918 10.6292553 7.4961262
5.0536227 9.4640694 7.4961734
5.6614309 8.1760502 7.4962607
4.8516646 7.0110488 7.4962955
5.4594274 5.7230463 7.4963374
4.6494742 4.5577564 7.4963064
5.2572155 3.2694881 7.4962979
4.4471731 2.1039732 7.4962302
5.0552621 0.8158427 7.496202
8.4904528 25.2352448 7.4962807
9.0986815 23.9474202 7.4963107
8.2883129 22.7819882 7.4963341
8.8964376 21.4940624 7.4963312
8.0860529 20.3288174 7.4963665
8.6941777 19.0407543 7.4962983
7.8842846 17.8755456 7.4962621
8.4921179 16.5872689 7.4961701
7.682221 15.42235 7.496121
8.2901383 14.1339665 7.4961052
7.4796891 12.9691486 7.4960118
8.087616 11.6807976 7.4960795
7.2776346 10.5156765 7.4960761
7.8854666 9.2274714 7.4961963
7.0753198 8.0623913 7.496191
7.6830774 6.7744656 7.4963269
6.8732948 5.6090741 7.496296
7.4811745 4.3212733 7.4963565
6.6710658 3.1556883 7.4963045
7.279407 1.8677122 7.4963212
6.4687243 0.7021995 7.4962726
11.3225651 24.9987412 7.4961787
10.5122834 23.8334809 7.4962421
11.1205797 22.5454388 7.4962731
10.3101692 21.3802662 7.4963184
10.9181014 20.0921402 7.4963303
10.1081915 18.9269982 7.4963374
10.7159882 17.6386776 7.4962821
9.9059448 16.473671 7.4962263
10.5138521 15.1852903 7.4961796
9.7037878 14.0203648 7.4961281
10.3117905 12.7320261 7.4961176
9.5014344 11.567009 7.4961252
10.1096697 10.2789211 7.4961529
9.299429 9.1135893 7.496192
9.9072208 7.8256712 7.4962645
9.0969334 6.660286 7.4962869
9.7051945 5.3726459 7.4963265
8.894886 4.2071405 7.4963284
9.5030146 2.9194428 7.4962898
8.6928692 1.7537794 7.4962664
9.301115 0.4658838 7.4962807
12.7362213 24.8851128 7.496109
13.3441 23.5968018 7.4961334
12.5343342 22.431572 7.4961801
13.1420927 21.1434097 7.4962683
12.3320246 19.9783192 7.4963012
12.9397736 18.6902352 7.4963413
12.1299124 17.5249329 7.4963126
12.737732 16.2369003 7.4963084
11.9274932 15.0715733 7.4962392
12.5358391 13.7835064 7.4962087
11.7253342 12.6182499 7.4962287
12.3335447 11.3302794 7.4962039
11.5233059 10.1649303 7.4962654
12.1313829 8.8771 7.4962502
11.3211355 7.7116242 7.4962855
11.929142 6.4239035 7.4962793
11.118906 5.2583962 7.4962702
11.7270384 3.9706428 7.4962077
10.9164772 2.8053208 7.4962302
11.5246296 1.5174539 7.4961572
10.7144814 0.3521109 7.4962025
14.7579146 23.4829979 7.4960785
14.555954 21.0295086 7.4961972
14.3536949 18.5762501 7.4963041
14.1514273 16.1229935 7.4963084
14.7595959 14.8351765 7.4963265
13.9493132 13.669591 7.4962793
14.5575772 12.3817101 7.4963093
13.7468672 11.2163172 7.4962969
14.3552971 9.928548 7.4963246
13.5450039 8.7630244 7.4963713
14.15312 7.4752579 7.4963131
13.3429928 6.3097839 7.4963289
13.9510374 5.0219002 7.4962173
13.1408129 3.856676 7.4962168
13.7485237 2.5685258 7.4960957
12.9381524 1.4035596 7.4961229
13.5464487 0.115365 7.4960542
5.9269668e-04 8.6462298 10.8947478
0.2027684 6.1930895 10.8947784
0.4047884 3.7399888 10.89491
0.6072619 1.2867584 10.8950214
-6.982388e-04 -0.0017079 10.8951016
0.809368 24.7681256 10.895011
0.2013208 23.4798126 10.8949958
1.0116183 22.3149262 10.8949462
0.4036544 21.0267086 10.8948546
1.2137841 19.86158 10.8948194
0.6059961 18.5734959 10.8947526
1.4158162 17.4081097 10.8947812
0.80781 16.1200848 10.8947784
1.6183492 14.9547702 10.8948012
1.0099159 13.6669846 10.8948364
1.8204543 12.5014496 10.8948194
1.2120885 11.2136965 10.8948384
2.0225663 10.0481205 10.8948146
1.4142064 8.7603998 10.8947764
2.224596 7.5949016 10.8947792
1.6167821 6.3071766 10.8948174
2.4270768 5.1418176 10.8948402
1.8188339 3.8539504 10.8949128
2.6289883 2.6886029 10.8949538
2.0210519 1.4003285 10.8949786
2.8311041 0.235201 10.8949862
2.223037 24.881712 10.894989
3.0334685 23.7169495 10.8949366
2.4255684 22.4285965 10.8948946
3.2355886 21.2634907 10.8948356
2.627738 19.9752636 10.8947812
3.4377444 18.8101101 10.8947916
2.8296104 17.5219136 10.8948002
3.6397913 16.3567906 10.8948346
3.0317659 15.0687132 10.8948766
3.8419726 13.9034786 10.8949348
3.2338376 12.615448 10.8949022
4.0443506 11.4500942 10.894948
3.4362564 10.1620321 10.894866
4.2464657 8.9964572 10.8948984
3.6383236 7.7088418 10.8948346
4.4488392 6.5436144 10.8948318
3.8408428 5.2559567 10.8948194
4.6507335 4.0903726 10.8948508
4.0427198 2.8023381 10.8948364
4.853027 1.6368273 10.8949128
4.2446351 0.3488016 10.8948766
5.0552917 25.118248 10.894909
4.4470506 23.8304348 10.8948822
5.2573094 22.6652813 10.8948108
4.6494999 21.3772583 10.8948022
5.4594503 20.2119694 10.8947744
4.8517462 18.9237118 10.8948164
5.6613527 17.7583847 10.8948488
5.0535359 16.4703789 10.8949338
5.8637744 15.305502 10.8949842
5.2555695 14.0173645 10.8950044
6.0659304 12.852213 10.895052
5.4581204 11.5637198 10.8949852
6.2684231 10.3985596 10.8950052
5.6602097 9.1105375 10.894888
6.4704843 7.945614 10.894888
5.8625256 6.6577912 10.8947764
6.6723566 5.492187 10.8947936
6.0643706 4.2042413 10.8947354
6.874744 3.0386925 10.8947888
6.2665377 1.7508621 10.8948088
7.0770659 0.5853986 10.8947954
6.4686718 25.2323933 10.8948394
7.2795162 24.0671101 10.8947898
6.6710692 22.7793198 10.894806
7.4811921 21.6137371 10.8947544
6.873385 20.3257408 10.8948164
7.6830025 19.1602058 10.894786
7.0752354 17.8723354 10.8949204
7.8854886 16.7074013 10.8949146
7.2776151 15.4193907 10.8950358
8.0876589 14.2542114 10.8950338
7.4797802 12.9656602 10.8950996
8.2900648 11.800704 10.8950062
7.6821366 10.5123701 10.894991
8.4921398 9.3476009 10.8949404
7.8842708 8.0595169 10.8948498
8.6942158 6.8942562 10.8948136
8.0861406 5.6060033 10.8947478
8.89637 4.4406286 10.8947754
8.2882691 3.1526768 10.8947726
9.0986309 1.9872454 10.8948012
8.490407 0.699449 10.8948308
9.3011866 25.4688187 10.8948288
8.6928606 24.1812344 10.894845
9.5030451 23.0155735 10.894826
8.8949748 21.7276669 10.894783
9.705122 20.5620346 10.8947888
9.0968847 19.2743874 10.8948278
9.9071712 18.1090031 10.8948488
9.2993841 16.8210907 10.8949242
10.1097822 15.6558686 10.8949604
9.5015259 14.3677588 10.8949852
10.311718 13.202652 10.8949928
9.7037468 11.9143048 10.8949842
10.5138121 10.7493725 10.8949308
9.905902 9.461011 10.8948898
10.7161036 8.296113 10.8948298
10.1082907 7.0077715 10.8947764
10.9180326 5.8425412 10.8947868
10.3101301 4.5543952 10.8947946
11.1205483 3.3892291 10.8948394
10.5122204 2.1011539 10.8948728
11.3226013 0.935836 10.89493
10.7145014 25.5825329 10.8949042
11.5247126 24.4173432 10.8949548
10.9165726 23.1294537 10.8948784
11.7269621 21.9640446 10.8949052
11.1188631 20.6762657 10.8948422
11.9290982 19.5107651 10.8948374
11.3210516 18.2230568 10.8948222
12.1315003 17.0576782 10.8948584
11.5234299 15.7698488 10.894848
12.3334656 14.6043835 10.8949156
11.7252922 13.3164091 10.8948842
12.5357971 12.1511593 10.894908
11.9274102 10.8631068 10.894868
12.7378493 9.6978808 10.8948078
12.1300383 8.4098454 10.8947964
12.9396906 7.2444406 10.8947706
12.3319788 5.956348 10.8948108
13.1420527 4.791265 10.8948488
12.5342617 3.5031107 10.894928
13.3442259 2.3380249 10.8949796
12.7362137 1.049885 10.8950034
13.5464268 25.8195992 10.8950634
12.9382648 24.5312691 10.8949938
13.7484513 23.3661556 10.895012
13.14077 22.0779877 10.8948956
13.9509908 20.9127618 10.8948956
13.3429318 19.624878 10.894783
14.1532431 18.4595299 10.8947964
13.5451212 17.1717491 10.8947412
14.3552199 16.0061207 10.8947954
13.7468272 14.7183457 10.8948154
14.5575352 13.5529537 10.8948022
13.9492408 12.2650929 10.8948336
14.7596903 11.0995903 10.894786
14.1515417 9.8117953 10.894804
14.3536539 7.3584166 10.8948078
14.5558777 4.9051728 10.8949156
14.7580052 2.4517915 10.8950358
