POSCAR file written by OVITO
1
14.9635954 0.0 0.0
0.0 25.9177074 0.0
0.0 0.0 18.3999996
Type_1 
296
Cartesian
0.607 24.6329994 7.5
0.404 22.1819992 7.5
0.202 19.7299996 7.5
0.0 17.2779999 7.5
2.8310001 25.684 7.5
2.0220001 24.5170002 7.5
2.629 23.2329998 7.5
1.8200001 22.0650005 7.5
2.4270001 20.7810002 7.5
1.6180001 19.6130009 7.5
2.224 18.3290005 7.5
1.415 17.1620007 7.5
2.0220001 15.8780004 7.5
1.2130001 14.7100001 7.5
1.8200001 13.4259997 7.5
1.011 12.2580004 7.5
1.6180001 10.974 7.5
0.809 9.8070002 7.5
1.415 8.5220003 7.5
0.607 7.355 7.5
1.2130001 6.0710001 7.5
0.404 4.903 7.5
1.011 3.619 7.5
0.202 2.4519999 7.5
0.809 1.1670001 7.5
0.0 0.0 7.5
4.2459998 25.5669995 7.5
4.8530002 24.283001 7.5
4.0440002 23.1159992 7.5
4.651 21.8320008 7.5
3.842 20.6639996 7.5
4.4489999 19.3799992 7.5
3.6400001 18.2119999 7.5
4.2459998 16.9279996 7.5
3.438 15.7609997 7.5
4.0440002 14.4770003 7.5
3.2349999 13.309 7.5
3.842 12.0249996 7.5
3.033 10.8570004 7.5
3.6400001 9.573 7.5
2.8310001 8.4060001 7.5
3.438 7.1220002 7.5
2.629 5.954 7.5
3.2349999 4.6700001 7.5
2.4270001 3.5020001 7.5
3.033 2.2179999 7.5
2.224 1.051 7.5
7.0770001 25.3339996 7.5
6.2690001 24.1669998 7.5
6.875 22.882 7.5
6.066 21.7150002 7.5
6.6729999 20.4309998 7.5
5.8639998 19.2630005 7.5
6.4710002 17.9790002 7.5
5.6620002 16.8110008 7.5
6.2690001 15.5270005 7.5
5.4600001 14.3599997 7.5
6.066 13.0760002 7.5
5.257 11.908 7.5
5.8639998 10.6239996 7.5
5.0549998 9.4560004 7.5
5.6620002 8.1719999 7.5
4.8530002 7.0050001 7.5
5.4600001 5.7210002 7.5
4.651 4.553 7.5
5.257 3.2690001 7.5
4.4489999 2.1010001 7.5
5.0549998 0.817 7.5
8.4930001 25.2169991 7.5
9.099 23.9330006 7.5
8.2910004 22.7660008 7.5
8.8970004 21.4810009 7.5
8.0880003 20.3139992 7.5
8.6949997 19.0300007 7.5
7.8860002 17.8619996 7.5
8.4930001 16.5779991 7.5
7.684 15.4110003 7.5
8.2910004 14.1260004 7.5
7.4819999 12.9589996 7.5
8.0880003 11.6750002 7.5
7.2800002 10.507 7.5
7.8860002 9.2229996 7.5
7.0770001 8.0559998 7.5
7.684 6.7709999 7.5
6.875 5.6040001 7.5
7.4819999 4.3200002 7.5
6.6729999 3.152 7.5
7.2800002 1.868 7.5
6.4710002 0.7 7.5
11.3240004 24.9839994 7.5
10.5150004 23.816 7.5
11.1219997 22.5319996 7.5
10.3129997 21.3649998 7.5
10.9189998 20.0799999 7.5
10.1110001 18.9130002 7.5
10.717 17.6289997 7.5
9.908 16.4610005 7.5
10.5150004 15.1770001 7.5
9.7060004 14.0100002 7.5
10.3129997 12.7250004 7.5
9.5039997 11.5579996 7.5
10.1110001 10.2740002 7.5
9.3020001 9.106 7.5
9.908 7.8220001 7.5
9.099 6.6550002 7.5
9.7060004 5.3699999 7.5
8.8970004 4.2030001 7.5
9.5039997 2.919 7.5
8.6949997 1.7510001 7.5
9.3020001 0.467 7.5
12.7390003 24.8670006 7.5
13.3459997 23.5830002 7.5
12.5369997 22.4150009 7.5
13.1440001 21.1310005 7.5
12.3350001 19.9640008 7.5
12.941 18.6790009 7.5
12.1330004 17.5119992 7.5
12.7390003 16.2280007 7.5
11.9300004 15.0600004 7.5
12.5369997 13.776 7.5
11.7279997 12.6090002 7.5
12.3350001 11.3240004 7.5
11.526 10.1569996 7.5
12.1330004 8.8730002 7.5
11.3240004 7.7049999 7.5
11.9300004 6.421 7.5
11.1219997 5.2540002 7.5
11.7279997 3.9690002 7.5
10.9189998 2.8020001 7.5
11.526 1.518 7.5
10.717 0.35 7.5
14.7609997 23.4659996 7.5
14.559 21.0139999 7.5
14.3570004 18.5629998 7.5
14.1549997 16.1110001 7.5
14.7609997 14.8269997 7.5
13.9530002 13.6590004 7.5
14.559 12.375 7.5
13.75 11.2080002 7.5
14.3570004 9.9230004 7.5
13.5480004 8.7559996 7.5
14.1549997 7.4720001 7.5
13.3459997 6.3039999 7.5
13.9530002 5.02 7.5
13.1440001 3.853 7.5
13.75 2.5680001 7.5
12.941 1.401 7.5
13.5480004 0.117 7.5
0.0 8.639 10.8999996
0.202 6.1880002 10.8999996
0.404 3.7360001 10.8999996
0.607 1.2840001 10.8999996
0.0 0.0 10.8999996
0.809 24.75 10.8999996
0.202 23.4659996 10.8999996
1.011 22.2989998 10.8999996
0.404 21.0139999 10.8999996
1.2130001 19.8470002 10.8999996
0.607 18.5629998 10.8999996
1.415 17.3950005 10.8999996
0.809 16.1110001 10.8999996
1.6180001 14.9440002 10.8999996
1.011 13.6590004 10.8999996
1.8200001 12.4919997 10.8999996
1.2130001 11.2080002 10.8999996
2.0220001 10.04 10.8999996
1.415 8.7559996 10.8999996
2.224 7.5890003 10.8999996
1.6180001 6.3039999 10.8999996
2.4270001 5.1370001 10.8999996
1.8200001 3.853 10.8999996
2.629 2.685 10.8999996
2.0220001 1.401 10.8999996
2.8310001 0.233 10.8999996
2.224 24.8670006 10.8999996
3.033 23.7000008 10.8999996
2.4270001 22.4150009 10.8999996
3.2349999 21.2479992 10.8999996
2.629 19.9640008 10.8999996
3.438 18.7959996 10.8999996
2.8310001 17.5119992 10.8999996
3.6400001 16.3449993 10.8999996
3.033 15.0600004 10.8999996
3.842 13.8929996 10.8999996
3.2349999 12.6090002 10.8999996
4.0440002 11.441 10.8999996
3.438 10.1569996 10.8999996
4.2459998 8.9890004 10.8999996
3.6400001 7.7049999 10.8999996
4.4489999 6.5380001 10.8999996
3.842 5.2540002 10.8999996
4.651 4.086 10.8999996
4.0440002 2.8020001 10.8999996
4.8530002 1.634 10.8999996
4.2459998 0.35 10.8999996
5.0549998 25.1000004 10.8999996
4.4489999 23.816 10.8999996
5.257 22.6490002 10.8999996
4.651 21.3649998 10.8999996
5.4600001 20.1970005 10.8999996
4.8530002 18.9130002 10.8999996
5.6620002 17.7450009 10.8999996
5.0549998 16.4610005 10.8999996
5.8639998 15.2939997 10.8999996
5.257 14.0100002 10.8999996
6.066 12.842 10.8999996
5.4600001 11.5579996 10.8999996
6.2690001 10.3900004 10.8999996
5.6620002 9.106 10.8999996
6.4710002 7.9390002 10.8999996
5.8639998 6.6550002 10.8999996
6.6729999 5.487 10.8999996
6.066 4.2030001 10.8999996
6.875 3.0350001 10.8999996
6.2690001 1.7510001 10.8999996
7.0770001 0.584 10.8999996
6.4710002 25.2169991 10.8999996
7.2800002 24.0499992 10.8999996
6.6729999 22.7660008 10.8999996
7.4819999 21.5979996 10.8999996
6.875 20.3139992 10.8999996
7.684 19.1459999 10.8999996
7.0770001 17.8619996 10.8999996
7.8860002 16.6949997 10.8999996
7.2800002 15.4110003 10.8999996
8.0880003 14.243 10.8999996
7.4819999 12.9589996 10.8999996
8.2910004 11.7910004 10.8999996
7.684 10.507 10.8999996
8.4930001 9.3400002 10.8999996
7.8860002 8.0559998 10.8999996
8.6949997 6.888 10.8999996
8.0880003 5.6040001 10.8999996
8.8970004 4.4359999 10.8999996
8.2910004 3.152 10.8999996
9.099 1.985 10.8999996
8.4930001 0.7 10.8999996
9.3020001 25.4510002 10.8999996
8.6949997 24.1669998 10.8999996
9.5039997 22.9990006 10.8999996
8.8970004 21.7150002 10.8999996
9.7060004 20.5470009 10.8999996
9.099 19.2630005 10.8999996
9.908 18.0960007 10.8999996
9.3020001 16.8110008 10.8999996
10.1110001 15.6440001 10.8999996
9.5039997 14.3599997 10.8999996
10.3129997 13.1920004 10.8999996
9.7060004 11.908 10.8999996
10.5150004 10.7410002 10.8999996
9.908 9.4560004 10.8999996
10.717 8.2889996 10.8999996
10.1110001 7.0050001 10.8999996
10.9189998 5.8369999 10.8999996
10.3129997 4.553 10.8999996
11.1219997 3.3859999 10.8999996
10.5150004 2.1010001 10.8999996
11.3240004 0.934 10.8999996
10.717 25.5669995 10.8999996
11.526 24.3999996 10.8999996
10.9189998 23.1159992 10.8999996
11.7279997 21.948 10.8999996
11.1219997 20.6639996 10.8999996
11.9300004 19.4969998 10.8999996
11.3240004 18.2119999 10.8999996
12.1330004 17.0450001 10.8999996
11.526 15.7609997 10.8999996
12.3350001 14.5930004 10.8999996
11.7279997 13.309 10.8999996
12.5369997 12.1420002 10.8999996
11.9300004 10.8570004 10.8999996
12.7390003 9.6899996 10.8999996
12.1330004 8.4060001 10.8999996
12.941 7.2379999 10.8999996
12.3350001 5.954 10.8999996
13.1440001 4.7870002 10.8999996
12.5369997 3.5020001 10.8999996
13.3459997 2.3350001 10.8999996
12.7390003 1.051 10.8999996
13.5480004 25.8010006 10.8999996
12.941 24.5170002 10.8999996
13.75 23.3490009 10.8999996
13.1440001 22.0650005 10.8999996
13.9530002 20.8980008 10.8999996
13.3459997 19.6130009 10.8999996
14.1549997 18.4459992 10.8999996
13.5480004 17.1620007 10.8999996
14.3570004 15.9940004 10.8999996
13.75 14.7100001 10.8999996
14.559 13.5430002 10.8999996
13.9530002 12.2580004 10.8999996
14.7609997 11.0909996 10.8999996
14.1549997 9.8070002 10.8999996
14.3570004 7.355 10.8999996
14.559 4.903 10.8999996
14.7609997 2.4519999 10.8999996

