file written by TR
1.000000
6.497965 0.000000 0.000000
3.248983 5.627403 0.000000
0.000000 0.000000 15.000000
Type1
28
Cartesian
0.928000 1.072000 3.000000
0.000000 0.000000 3.000000
3.713000 4.288000 3.000000
2.785000 3.216000 3.000000
3.249000 1.876000 3.000000
2.321000 0.804000 3.000000
6.034000 5.091000 3.000000
5.106000 4.020000 3.000000
5.570000 2.680000 3.000000
4.641000 1.608000 3.000000
5.106000 0.268000 3.000000
7.425965 4.823000 3.000000
7.889965 3.484000 3.000000
6.961966 2.412000 3.000000
0.000000 0.000000 6.400000
2.321000 2.948000 6.400000
1.857000 1.608000 6.400000
2.785000 0.536000 6.400000
4.177000 4.556000 6.400000
3.713000 3.216000 6.400000
4.641000 2.144000 6.400000
4.177000 0.804000 6.400000
5.570000 4.823000 6.400000
6.034000 2.412000 6.400000
6.497965 3.752000 6.400000
6.961966 1.340000 6.400000
8.354965 5.359000 6.400000
7.889965 4.020000 6.400000
