file written by TR
1.000000
31.927999 0.000000 0.000000
15.964000 27.650459 0.000000
0.000000 0.000000 15.000000
Type1
676
Cartesian
0.756000 1.200000 3.000000
0.000000 0.000000 3.000000
3.023000 4.799000 3.000000
2.267000 3.599000 3.000000
2.928000 2.345000 3.000000
2.173000 1.145000 3.000000
5.290000 8.399000 3.000000
4.534000 7.199000 3.000000
5.195000 5.945000 3.000000
4.440000 4.745000 3.000000
5.101000 3.490000 3.000000
4.345000 2.291000 3.000000
5.006000 1.036000 3.000000
7.557000 11.998000 3.000000
6.801000 10.798000 3.000000
7.462000 9.544000 3.000000
6.707000 8.344000 3.000000
7.368000 7.090000 3.000000
6.612000 5.890000 3.000000
7.274000 4.636000 3.000000
6.518000 3.436000 3.000000
7.179000 2.181000 3.000000
6.423000 0.982000 3.000000
9.824000 15.598000 3.000000
9.068000 14.398000 3.000000
9.730000 13.144000 3.000000
8.974000 11.944000 3.000000
9.635000 10.689000 3.000000
8.879000 9.490000 3.000000
9.541000 8.235000 3.000000
8.785000 7.035000 3.000000
9.446000 5.781000 3.000000
8.690000 4.581000 3.000000
9.352000 3.327000 3.000000
8.596000 2.127000 3.000000
9.257000 0.873000 3.000000
12.091000 19.197001 3.000000
11.335000 17.997000 3.000000
11.997000 16.743000 3.000000
11.241000 15.543000 3.000000
11.902000 14.289000 3.000000
11.146000 13.089000 3.000000
11.808000 11.835000 3.000000
11.052000 10.635000 3.000000
11.713000 9.380000 3.000000
10.958000 8.181000 3.000000
11.619001 6.926000 3.000000
10.863000 5.726000 3.000000
11.524000 4.472000 3.000000
10.769000 3.272000 3.000000
11.430000 2.018000 3.000000
10.674000 0.818000 3.000000
14.358000 22.797001 3.000000
13.602000 21.597000 3.000000
14.264000 20.341999 3.000000
13.508000 19.143000 3.000000
14.169000 17.888001 3.000000
13.414000 16.688000 3.000000
14.075000 15.434000 3.000000
13.319000 14.234000 3.000000
13.980000 12.980000 3.000000
13.225000 11.780000 3.000000
13.886000 10.526000 3.000000
13.130000 9.326000 3.000000
13.791000 8.072000 3.000000
13.036000 6.872000 3.000000
13.697000 5.617000 3.000000
12.941000 4.418000 3.000000
13.602000 3.163000 3.000000
12.847000 1.963000 3.000000
13.508000 0.709000 3.000000
16.625000 26.396000 3.000000
15.870000 25.195999 3.000000
16.531000 23.941999 3.000000
15.775000 22.742001 3.000000
16.436001 21.488001 3.000000
15.681000 20.288000 3.000000
16.341999 19.034000 3.000000
15.586001 17.834000 3.000000
16.247000 16.579000 3.000000
15.492000 15.380000 3.000000
16.153000 14.125000 3.000000
15.397000 12.925000 3.000000
16.058001 11.671000 3.000000
15.303000 10.471000 3.000000
15.964000 9.217000 3.000000
15.208000 8.017000 3.000000
15.870000 6.763000 3.000000
15.114000 5.563000 3.000000
15.775000 4.308000 3.000000
15.019000 3.109000 3.000000
15.681000 1.854000 3.000000
14.925000 0.654000 3.000000
18.798000 27.541000 3.000000
18.042000 26.341999 3.000000
18.702999 25.087000 3.000000
17.948000 23.886999 3.000000
18.608999 22.632999 3.000000
17.853001 21.433001 3.000000
18.514000 20.179001 3.000000
17.759001 18.979000 3.000000
18.420000 17.725000 3.000000
17.664000 16.525000 3.000000
18.326000 15.270001 3.000000
17.570000 14.071000 3.000000
18.231001 12.816000 3.000000
17.475000 11.616000 3.000000
18.136999 10.362001 3.000000
17.381000 9.162000 3.000000
18.042000 7.908000 3.000000
17.285999 6.708000 3.000000
17.948000 5.454000 3.000000
17.191999 4.254000 3.000000
17.853001 3.000000 3.000000
17.098000 1.800000 3.000000
17.759001 0.545000 3.000000
20.215000 27.486999 3.000000
20.876000 26.232000 3.000000
20.120001 25.033001 3.000000
20.782000 23.778000 3.000000
20.025999 22.577999 3.000000
20.687000 21.323999 3.000000
19.931000 20.124001 3.000000
20.593000 18.870001 3.000000
19.837000 17.670000 3.000000
20.497999 16.416000 3.000000
19.742001 15.216000 3.000000
20.403999 13.962000 3.000000
19.648001 12.762000 3.000000
20.309000 11.507000 3.000000
19.554001 10.308000 3.000000
20.215000 9.053000 3.000000
19.459000 7.853000 3.000000
20.120001 6.599000 3.000000
19.365000 5.399000 3.000000
20.025999 4.145000 3.000000
19.270000 2.945000 3.000000
19.931000 1.691000 3.000000
19.176001 0.491000 3.000000
23.049000 27.378000 3.000000
22.292999 26.177999 3.000000
22.954001 24.924000 3.000000
22.198000 23.724001 3.000000
22.860001 22.469000 3.000000
22.104000 21.270000 3.000000
22.764999 20.014999 3.000000
22.010000 18.815001 3.000000
22.671000 17.561001 3.000000
21.915001 16.361000 3.000000
22.576000 15.107000 3.000000
21.820999 13.907000 3.000000
22.482000 12.653000 3.000000
21.726000 11.453000 3.000000
22.386999 10.198000 3.000000
21.632000 8.999000 3.000000
22.292999 7.744000 3.000000
21.537001 6.544000 3.000000
22.198000 5.290000 3.000000
21.443001 4.090000 3.000000
22.104000 2.836000 3.000000
21.348000 1.636000 3.000000
22.010000 0.382000 3.000000
24.466000 27.323000 3.000000
25.127001 26.069000 3.000000
24.371000 24.869000 3.000000
25.032000 23.615000 3.000000
24.277000 22.415001 3.000000
24.938000 21.160999 3.000000
24.181999 19.961000 3.000000
24.843000 18.705999 3.000000
24.087999 17.507000 3.000000
24.749001 16.252001 3.000000
23.993000 15.052000 3.000000
24.653999 13.798000 3.000000
23.899000 12.598000 3.000000
24.559999 11.344000 3.000000
23.804001 10.144000 3.000000
24.466000 8.890000 3.000000
23.709999 7.690000 3.000000
24.371000 6.435000 3.000000
23.615000 5.236000 3.000000
24.277000 3.981000 3.000000
23.521000 2.781000 3.000000
24.181999 1.527000 3.000000
23.426001 0.327000 3.000000
27.299000 27.214001 3.000000
26.544001 26.014000 3.000000
27.205000 24.760000 3.000000
26.448999 23.559999 3.000000
27.110001 22.306000 3.000000
26.355000 21.106001 3.000000
27.016001 19.851999 3.000000
26.260000 18.652000 3.000000
26.922001 17.396999 3.000000
26.166000 16.198000 3.000000
26.827000 14.943000 3.000000
26.070999 13.743000 3.000000
26.733000 12.489000 3.000000
25.976999 11.289000 3.000000
26.638001 10.035000 3.000000
25.882000 8.835000 3.000000
26.544001 7.581000 3.000000
25.788000 6.381000 3.000000
26.448999 5.127000 3.000000
25.694000 3.927000 3.000000
26.355000 2.672000 3.000000
25.599001 1.473000 3.000000
26.260000 0.218000 3.000000
28.716000 27.160000 3.000000
29.378000 25.905001 3.000000
28.622000 24.705000 3.000000
29.283001 23.451000 3.000000
28.527000 22.250999 3.000000
29.188999 20.997000 3.000000
28.433001 19.797001 3.000000
29.094000 18.542999 3.000000
28.337999 17.343000 3.000000
29.000000 16.089001 3.000000
28.244000 14.889000 3.000000
28.905001 13.634000 3.000000
28.150000 12.435000 3.000000
28.811001 11.180000 3.000000
28.055000 9.980000 3.000000
28.716000 8.726000 3.000000
27.961000 7.526000 3.000000
28.622000 6.272000 3.000000
27.865999 5.072000 3.000000
28.527000 3.818000 3.000000
27.771999 2.618000 3.000000
28.433001 1.363000 3.000000
27.677000 0.164000 3.000000
31.549999 27.051001 3.000000
30.794001 25.851000 3.000000
31.455999 24.596001 3.000000
30.700001 23.396999 3.000000
31.361000 22.142000 3.000000
30.606001 20.941999 3.000000
31.267000 19.688000 3.000000
30.511000 18.488001 3.000000
31.172001 17.233999 3.000000
30.417000 16.034000 3.000000
31.077999 14.780000 3.000000
30.322001 13.580000 3.000000
30.983000 12.325000 3.000000
30.228001 11.126000 3.000000
30.889000 9.871000 3.000000
30.132999 8.671000 3.000000
30.794001 7.417000 3.000000
30.039000 6.217000 3.000000
30.700001 4.963000 3.000000
29.944000 3.763000 3.000000
30.606001 2.509000 3.000000
29.850000 1.309000 3.000000
30.511000 0.055000 3.000000
32.966999 26.996000 3.000000
33.627998 25.742001 3.000000
32.873001 24.542000 3.000000
33.534000 23.287001 3.000000
32.778000 22.087999 3.000000
33.438999 20.833000 3.000000
32.683998 19.632999 3.000000
33.345001 18.379000 3.000000
32.589001 17.179001 3.000000
33.250000 15.925000 3.000000
32.494999 14.725000 3.000000
33.155998 13.471000 3.000000
32.399998 12.271000 3.000000
33.062000 11.017000 3.000000
32.306000 9.817000 3.000000
32.966999 8.562000 3.000000
32.210999 7.363000 3.000000
32.873001 6.108000 3.000000
32.117001 4.908000 3.000000
32.778000 3.654000 3.000000
32.021999 2.454000 3.000000
35.800999 26.886999 3.000000
35.044998 25.687000 3.000000
35.706001 24.433001 3.000000
34.951000 23.233000 3.000000
35.612000 21.979000 3.000000
34.855999 20.778999 3.000000
35.517998 19.524000 3.000000
34.762001 18.325001 3.000000
35.423000 17.070000 3.000000
34.667000 15.870000 3.000000
35.328999 14.616000 3.000000
34.572998 13.416000 3.000000
35.234001 12.162000 3.000000
34.478001 10.962000 3.000000
35.139999 9.708000 3.000000
34.383999 8.508000 3.000000
35.044998 7.253000 3.000000
34.290001 6.054000 3.000000
37.217999 26.832001 3.000000
37.878998 25.577999 3.000000
37.123001 24.378000 3.000000
37.785000 23.124001 3.000000
37.028999 21.924000 3.000000
37.689999 20.670000 3.000000
36.933998 19.469999 3.000000
37.596001 18.215000 3.000000
36.840000 17.016001 3.000000
37.500999 15.761000 3.000000
36.745998 14.561000 3.000000
37.406998 13.307000 3.000000
36.651001 12.107000 3.000000
37.312000 10.853000 3.000000
36.556999 9.653000 3.000000
40.051998 26.723000 3.000000
39.295998 25.524000 3.000000
39.957001 24.268999 3.000000
39.202000 23.069000 3.000000
39.862999 21.815001 3.000000
39.106998 20.615000 3.000000
39.767998 19.361000 3.000000
39.013000 18.160999 3.000000
39.674000 16.907000 3.000000
38.917999 15.707000 3.000000
39.578999 14.452000 3.000000
38.823997 13.253000 3.000000
41.469002 26.669001 3.000000
42.129997 25.414000 3.000000
41.374001 24.215000 3.000000
42.035000 22.959999 3.000000
41.279999 21.760000 3.000000
41.940998 20.506000 3.000000
41.184998 19.306000 3.000000
41.846001 18.052000 3.000000
41.091000 16.851999 3.000000
44.301998 26.559999 3.000000
43.547001 25.360001 3.000000
44.208000 24.106001 3.000000
43.452000 22.906000 3.000000
44.113998 21.650999 3.000000
43.358002 20.452000 3.000000
45.719002 26.504999 3.000000
46.381000 25.250999 3.000000
45.625000 24.051001 3.000000
0.000000 0.000000 6.400000
2.739000 2.563000 6.400000
2.078000 1.309000 6.400000
2.834000 0.109000 6.400000
4.723000 6.326000 6.400000
4.062000 5.072000 6.400000
4.818000 3.872000 6.400000
4.156000 2.618000 6.400000
4.912000 1.418000 6.400000
4.251000 0.164000 6.400000
6.707000 10.089000 6.400000
6.046000 8.835000 6.400000
6.801000 7.635000 6.400000
6.140000 6.381000 6.400000
6.896000 5.181000 6.400000
6.234000 3.927000 6.400000
6.990000 2.727000 6.400000
6.329000 1.473000 6.400000
7.085000 0.273000 6.400000
8.690000 13.852000 6.400000
8.029000 12.598000 6.400000
8.785000 11.398000 6.400000
8.124000 10.144000 6.400000
8.879000 8.944000 6.400000
8.218000 7.690000 6.400000
8.974000 6.490000 6.400000
8.313000 5.236000 6.400000
9.068000 4.036000 6.400000
8.407000 2.781000 6.400000
9.163000 1.582000 6.400000
8.502000 0.327000 6.400000
10.674000 17.615999 6.400000
10.012999 16.361000 6.400000
10.769000 15.161000 6.400000
10.107000 13.907000 6.400000
10.863000 12.707000 6.400000
10.202000 11.453000 6.400000
10.958000 10.253000 6.400000
10.296000 8.999000 6.400000
11.052000 7.799000 6.400000
10.391000 6.544000 6.400000
11.146000 5.345000 6.400000
10.485000 4.090000 6.400000
11.241000 2.890000 6.400000
10.580000 1.636000 6.400000
11.335000 0.436000 6.400000
12.658000 21.379000 6.400000
11.997000 20.124001 6.400000
12.752000 18.924000 6.400000
12.091000 17.670000 6.400000
12.847000 16.469999 6.400000
12.186000 15.216000 6.400000
12.941000 14.016000 6.400000
12.280000 12.762000 6.400000
13.036000 11.562000 6.400000
12.374000 10.308000 6.400000
13.130000 9.108000 6.400000
12.469000 7.853000 6.400000
13.225000 6.654000 6.400000
12.563000 5.399000 6.400000
13.319000 4.199000 6.400000
12.658000 2.945000 6.400000
13.414000 1.745000 6.400000
12.752000 0.491000 6.400000
14.642000 25.142000 6.400000
13.980000 23.886999 6.400000
14.736000 22.688000 6.400000
14.075000 21.433001 6.400000
14.830000 20.233000 6.400000
14.169000 18.979000 6.400000
14.925000 17.778999 6.400000
14.264000 16.525000 6.400000
15.019000 15.325000 6.400000
14.358000 14.071000 6.400000
15.114000 12.871000 6.400000
14.453000 11.616000 6.400000
15.208000 10.417000 6.400000
14.547000 9.162000 6.400000
15.303000 7.962000 6.400000
14.642000 6.708000 6.400000
15.397000 5.508000 6.400000
14.736000 4.254000 6.400000
15.492000 3.054000 6.400000
14.830000 1.800000 6.400000
15.586001 0.600000 6.400000
16.719999 26.451000 6.400000
16.058001 25.195999 6.400000
16.813999 23.996000 6.400000
16.153000 22.742001 6.400000
16.909000 21.542000 6.400000
16.247000 20.288000 6.400000
17.003000 19.087999 6.400000
16.341999 17.834000 6.400000
17.098000 16.634001 6.400000
16.436001 15.380000 6.400000
17.191999 14.180000 6.400000
16.531000 12.925000 6.400000
17.285999 11.726000 6.400000
16.625000 10.471000 6.400000
17.381000 9.271000 6.400000
16.719999 8.017000 6.400000
17.475000 6.817000 6.400000
16.813999 5.563000 6.400000
17.570000 4.363000 6.400000
16.909000 3.109000 6.400000
17.664000 1.909000 6.400000
17.003000 0.654000 6.400000
18.136999 26.504999 6.400000
18.892000 25.305000 6.400000
18.231001 24.051001 6.400000
18.987000 22.851000 6.400000
18.326000 21.597000 6.400000
19.080999 20.396999 6.400000
18.420000 19.143000 6.400000
19.176001 17.943001 6.400000
18.514000 16.688000 6.400000
19.270000 15.489000 6.400000
18.608999 14.234000 6.400000
19.365000 13.034000 6.400000
18.702999 11.780000 6.400000
19.459000 10.580000 6.400000
18.798000 9.326000 6.400000
19.554001 8.126000 6.400000
18.892000 6.872000 6.400000
19.648001 5.672000 6.400000
18.987000 4.418000 6.400000
19.742001 3.218000 6.400000
19.080999 1.963000 6.400000
19.837000 0.764000 6.400000
20.969999 26.614000 6.400000
20.309000 25.360001 6.400000
21.065001 24.160000 6.400000
20.403999 22.906000 6.400000
21.159000 21.705999 6.400000
20.497999 20.452000 6.400000
21.254000 19.252001 6.400000
20.593000 17.997000 6.400000
21.348000 16.798000 6.400000
20.687000 15.543000 6.400000
21.443001 14.343000 6.400000
20.782000 13.089000 6.400000
21.537001 11.889000 6.400000
20.876000 10.635000 6.400000
21.632000 9.435000 6.400000
20.969999 8.181000 6.400000
21.726000 6.981000 6.400000
21.065001 5.726000 6.400000
21.820999 4.527000 6.400000
21.159000 3.272000 6.400000
21.915001 2.072000 6.400000
21.254000 0.818000 6.400000
22.386999 26.669001 6.400000
23.143000 25.469000 6.400000
22.482000 24.215000 6.400000
23.238001 23.014999 6.400000
22.576000 21.760000 6.400000
23.332001 20.561001 6.400000
22.671000 19.306000 6.400000
23.426001 18.106001 6.400000
22.764999 16.851999 6.400000
23.521000 15.652000 6.400000
22.860001 14.398000 6.400000
23.615000 13.198000 6.400000
22.954001 11.944000 6.400000
23.709999 10.744001 6.400000
23.049000 9.490000 6.400000
23.804001 8.290000 6.400000
23.143000 7.035000 6.400000
23.899000 5.836000 6.400000
23.238001 4.581000 6.400000
23.993000 3.381000 6.400000
23.332001 2.127000 6.400000
24.087999 0.927000 6.400000
25.221001 26.778000 6.400000
24.559999 25.524000 6.400000
25.316000 24.323999 6.400000
24.653999 23.069000 6.400000
25.410000 21.869000 6.400000
24.749001 20.615000 6.400000
25.504999 19.415001 6.400000
24.843000 18.160999 6.400000
25.599001 16.961000 6.400000
24.938000 15.707000 6.400000
25.694000 14.507000 6.400000
25.032000 13.253000 6.400000
25.788000 12.053000 6.400000
25.127001 10.798000 6.400000
25.882000 9.599000 6.400000
25.221001 8.344000 6.400000
25.976999 7.144000 6.400000
25.316000 5.890000 6.400000
26.070999 4.690000 6.400000
25.410000 3.436000 6.400000
26.166000 2.236000 6.400000
25.504999 0.982000 6.400000
26.638001 26.832001 6.400000
27.393999 25.632999 6.400000
26.733000 24.378000 6.400000
27.488001 23.177999 6.400000
26.827000 21.924000 6.400000
27.583000 20.724001 6.400000
26.922001 19.469999 6.400000
27.677000 18.270000 6.400000
27.016001 17.016001 6.400000
27.771999 15.816000 6.400000
27.110001 14.561000 6.400000
27.865999 13.362001 6.400000
27.205000 12.107000 6.400000
27.961000 10.907000 6.400000
27.299000 9.653000 6.400000
28.055000 8.453000 6.400000
27.393999 7.199000 6.400000
28.150000 5.999000 6.400000
27.488001 4.745000 6.400000
28.244000 3.545000 6.400000
27.583000 2.291000 6.400000
28.337999 1.091000 6.400000
29.472000 26.941000 6.400000
28.811001 25.687000 6.400000
29.566000 24.486999 6.400000
28.905001 23.233000 6.400000
29.660999 22.033001 6.400000
29.000000 20.778999 6.400000
29.754999 19.579000 6.400000
29.094000 18.325001 6.400000
29.850000 17.125000 6.400000
29.188999 15.870000 6.400000
29.944000 14.671000 6.400000
29.283001 13.416000 6.400000
30.039000 12.216000 6.400000
29.378000 10.962000 6.400000
30.132999 9.762000 6.400000
29.472000 8.508000 6.400000
30.228001 7.308000 6.400000
29.566000 6.054000 6.400000
30.322001 4.854000 6.400000
29.660999 3.599000 6.400000
30.417000 2.400000 6.400000
29.754999 1.145000 6.400000
30.889000 26.996000 6.400000
31.645000 25.796000 6.400000
30.983000 24.542000 6.400000
31.739000 23.341999 6.400000
31.077999 22.087999 6.400000
31.834000 20.888001 6.400000
31.172001 19.632999 6.400000
31.267000 17.179001 6.400000
31.361000 14.725000 6.400000
31.455999 12.271000 6.400000
31.549999 9.817000 6.400000
31.645000 7.363000 6.400000
31.739000 4.908000 6.400000
31.834000 2.454000 6.400000
31.928000 18.434000 6.400000
32.021999 15.979000 6.400000
32.117001 13.525000 6.400000
32.210999 11.071000 6.400000
32.306000 8.617000 6.400000
32.399998 6.163000 6.400000
32.494999 3.709000 6.400000
32.589001 1.254000 6.400000
33.723000 27.105000 6.400000
33.062000 25.851000 6.400000
33.817001 24.650999 6.400000
33.155998 23.396999 6.400000
33.911999 22.197001 6.400000
33.250000 20.941999 6.400000
34.006000 19.743000 6.400000
33.345001 18.488001 6.400000
34.100998 17.288000 6.400000
33.438999 16.034000 6.400000
34.195000 14.834000 6.400000
33.534000 13.580000 6.400000
34.290001 12.380000 6.400000
33.627998 11.126000 6.400000
34.383999 9.926000 6.400000
33.723000 8.671000 6.400000
34.478001 7.472000 6.400000
33.817001 6.217000 6.400000
34.572998 5.017000 6.400000
33.911999 3.763000 6.400000
35.139999 27.160000 6.400000
35.895001 25.959999 6.400000
35.234001 24.705000 6.400000
35.989998 23.506000 6.400000
35.328999 22.250999 6.400000
36.084000 21.051001 6.400000
35.423000 19.797001 6.400000
36.179001 18.597000 6.400000
35.517998 17.343000 6.400000
36.272999 16.143000 6.400000
35.612000 14.889000 6.400000
36.368000 13.689000 6.400000
35.706001 12.435000 6.400000
36.461998 11.235000 6.400000
35.800999 9.980000 6.400000
36.556999 8.781000 6.400000
35.895001 7.526000 6.400000
37.973999 27.268999 6.400000
37.312000 26.014000 6.400000
38.068001 24.815001 6.400000
37.406998 23.559999 6.400000
38.161999 22.360001 6.400000
37.500999 21.106001 6.400000
38.257000 19.906000 6.400000
37.596001 18.652000 6.400000
38.350998 17.452000 6.400000
37.689999 16.198000 6.400000
38.445999 14.998000 6.400000
37.785000 13.743000 6.400000
38.540001 12.544000 6.400000
37.878998 11.289000 6.400000
39.389999 27.323000 6.400000
40.146000 26.122999 6.400000
39.485001 24.869000 6.400000
40.240997 23.669001 6.400000
39.578999 22.415001 6.400000
40.334999 21.215000 6.400000
39.674000 19.961000 6.400000
40.430000 18.761000 6.400000
39.767998 17.507000 6.400000
40.523998 16.306999 6.400000
39.862999 15.052000 6.400000
42.223999 27.431999 6.400000
41.563000 26.177999 6.400000
42.319000 24.978001 6.400000
41.657997 23.724001 6.400000
42.412998 22.524000 6.400000
41.751999 21.270000 6.400000
42.507999 20.070000 6.400000
41.846001 18.815001 6.400000
43.640999 27.486999 6.400000
44.396999 26.287001 6.400000
43.736000 25.033001 6.400000
44.490997 23.833000 6.400000
43.830002 22.577999 6.400000
46.474998 27.596001 6.400000
45.813999 26.341999 6.400000
