file written by TR
1.000000
27.677713 0.000000 0.000000
13.838857 23.969603 0.000000
0.000000 0.000000 15.000000
Type1
508
Cartesian
0.763000 1.195000 3.000000
0.000000 0.000000 3.000000
3.051000 4.781000 3.000000
2.288000 3.586000 3.000000
2.942000 2.328000 3.000000
2.179000 1.132000 3.000000
5.339000 8.367000 3.000000
4.577000 7.172000 3.000000
5.230000 5.914000 3.000000
4.468000 4.718000 3.000000
5.121000 3.460000 3.000000
4.359000 2.265000 3.000000
5.012000 1.007000 3.000000
7.628000 11.953000 3.000000
6.865000 10.758000 3.000000
7.519000 9.500000 3.000000
6.756000 8.304000 3.000000
7.410000 7.046000 3.000000
6.647000 5.851000 3.000000
7.301000 4.593000 3.000000
6.538000 3.397000 3.000000
7.192000 2.139000 3.000000
6.429000 0.944000 3.000000
9.916000 15.539000 3.000000
9.153000 14.344000 3.000000
9.807000 13.086000 3.000000
9.044000 11.890000 3.000000
9.698000 10.632000 3.000000
8.935000 9.437000 3.000000
9.589000 8.179000 3.000000
8.826000 6.983000 3.000000
9.480000 5.725000 3.000000
8.717000 4.530000 3.000000
9.371000 3.271000 3.000000
8.608000 2.076000 3.000000
9.262000 0.818000 3.000000
12.204000 19.125000 3.000000
11.442000 17.930000 3.000000
12.095000 16.672001 3.000000
11.333000 15.476000 3.000000
11.986000 14.218000 3.000000
11.224000 13.023000 3.000000
11.877000 11.765000 3.000000
11.115000 10.569000 3.000000
11.768000 9.311000 3.000000
11.006000 8.116000 3.000000
11.660000 6.857000 3.000000
10.897000 5.662000 3.000000
11.551000 4.404000 3.000000
10.788000 3.209000 3.000000
11.442000 1.950000 3.000000
10.679000 0.755000 3.000000
14.493000 22.711001 3.000000
13.730000 21.516001 3.000000
14.384000 20.257999 3.000000
13.621000 19.062000 3.000000
14.275000 17.804001 3.000000
13.512000 16.608999 3.000000
14.166000 15.351000 3.000000
13.403000 14.155000 3.000000
14.057000 12.897000 3.000000
13.294000 11.702000 3.000000
13.948000 10.443000 3.000000
13.185000 9.248000 3.000000
13.839000 7.990000 3.000000
13.076000 6.795000 3.000000
13.730000 5.536000 3.000000
12.967000 4.341000 3.000000
13.621000 3.083000 3.000000
12.858000 1.887000 3.000000
13.512000 0.629000 3.000000
16.672001 23.844000 3.000000
15.909000 22.648001 3.000000
16.563000 21.389999 3.000000
15.800000 20.195000 3.000000
16.454000 18.937000 3.000000
15.691000 17.740999 3.000000
16.344999 16.483000 3.000000
15.582000 15.288000 3.000000
16.236000 14.029000 3.000000
15.473000 12.834000 3.000000
16.127001 11.576000 3.000000
15.364000 10.381000 3.000000
16.018000 9.122000 3.000000
15.255000 7.927000 3.000000
15.909000 6.669000 3.000000
15.146000 5.473000 3.000000
15.800000 4.215000 3.000000
15.037000 3.020000 3.000000
15.691000 1.762000 3.000000
14.929000 0.566000 3.000000
18.089001 23.781000 3.000000
18.742001 22.523001 3.000000
17.980000 21.327000 3.000000
18.632999 20.069000 3.000000
17.871000 18.874001 3.000000
18.524000 17.615000 3.000000
17.761999 16.420000 3.000000
18.415001 15.162000 3.000000
17.653000 13.967000 3.000000
18.306999 12.708000 3.000000
17.544001 11.513000 3.000000
18.198000 10.255000 3.000000
17.434999 9.059000 3.000000
18.089001 7.801000 3.000000
17.326000 6.606000 3.000000
17.980000 5.348000 3.000000
17.216999 4.152000 3.000000
17.871000 2.894000 3.000000
17.108000 1.699000 3.000000
17.761999 0.440000 3.000000
20.922001 23.655001 3.000000
20.159000 22.459999 3.000000
20.813000 21.201000 3.000000
20.049999 20.006000 3.000000
20.704000 18.747999 3.000000
19.941000 17.552999 3.000000
20.594999 16.294001 3.000000
19.832001 15.099000 3.000000
20.486000 13.841000 3.000000
19.723000 12.645001 3.000000
20.377001 11.387000 3.000000
19.614000 10.192000 3.000000
20.268000 8.934000 3.000000
19.504999 7.738000 3.000000
20.159000 6.480000 3.000000
19.396000 5.285000 3.000000
20.049999 4.026000 3.000000
19.287001 2.831000 3.000000
19.941000 1.573000 3.000000
19.177999 0.377000 3.000000
22.337999 23.591999 3.000000
22.992001 22.334000 3.000000
22.229000 21.139000 3.000000
22.882999 19.879999 3.000000
22.120001 18.684999 3.000000
22.774000 17.427000 3.000000
22.011000 16.231001 3.000000
22.665001 14.973000 3.000000
21.902000 13.778000 3.000000
22.556000 12.520001 3.000000
21.792999 11.324000 3.000000
22.447001 10.066000 3.000000
21.684999 8.871000 3.000000
22.337999 7.612000 3.000000
21.576000 6.417000 3.000000
22.229000 5.159000 3.000000
21.466999 3.963000 3.000000
22.120001 2.705000 3.000000
21.358000 1.510000 3.000000
22.011000 0.252000 3.000000
25.171000 23.466000 3.000000
24.409000 22.271000 3.000000
25.062000 21.013001 3.000000
24.299999 19.817000 3.000000
24.954001 18.559000 3.000000
24.191000 17.364000 3.000000
24.844999 16.106001 3.000000
24.082001 14.910000 3.000000
24.736000 13.652000 3.000000
23.973000 12.457000 3.000000
24.627001 11.198000 3.000000
23.864000 10.003000 3.000000
24.518000 8.745000 3.000000
23.754999 7.549000 3.000000
24.409000 6.291000 3.000000
23.646000 5.096000 3.000000
24.299999 3.838000 3.000000
23.537001 2.642000 3.000000
24.191000 1.384000 3.000000
23.427999 0.189000 3.000000
26.587999 23.403000 3.000000
27.242001 22.145000 3.000000
26.479000 20.950001 3.000000
27.132999 19.692000 3.000000
26.370001 18.496000 3.000000
27.024000 17.238001 3.000000
26.261000 16.042999 3.000000
26.915001 14.784000 3.000000
26.152000 13.589000 3.000000
26.806000 12.331000 3.000000
26.042999 11.135000 3.000000
26.697001 9.877000 3.000000
25.934000 8.682000 3.000000
26.587999 7.424000 3.000000
25.825001 6.228000 3.000000
26.479000 4.970000 3.000000
25.716000 3.775000 3.000000
26.370001 2.516000 3.000000
25.607000 1.321000 3.000000
26.261000 0.063000 3.000000
29.420713 23.278000 3.000000
28.658714 22.082001 3.000000
29.312714 20.823999 3.000000
28.549713 19.629000 3.000000
29.203713 18.370001 3.000000
28.440714 17.174999 3.000000
29.094713 15.917000 3.000000
28.331713 14.721000 3.000000
28.985714 13.463000 3.000000
28.222714 12.268000 3.000000
28.876713 11.010000 3.000000
28.113714 9.814000 3.000000
28.767714 8.556000 3.000000
28.004713 7.361000 3.000000
28.658714 6.102000 3.000000
27.895714 4.907000 3.000000
28.549713 3.649000 3.000000
27.786713 2.454000 3.000000
30.837713 23.215000 3.000000
31.491713 21.955999 3.000000
30.728714 20.761000 3.000000
31.382713 19.503000 3.000000
30.619713 18.306999 3.000000
31.273714 17.049000 3.000000
30.510714 15.854000 3.000000
31.164713 14.596000 3.000000
30.401714 13.400000 3.000000
31.055714 12.142000 3.000000
30.292713 10.947000 3.000000
30.946713 9.689000 3.000000
30.183714 8.493000 3.000000
30.837713 7.235000 3.000000
30.074713 6.040000 3.000000
33.670715 23.089001 3.000000
32.907715 21.893000 3.000000
33.561714 20.635000 3.000000
32.798714 19.440001 3.000000
33.452713 18.181999 3.000000
32.689712 16.986000 3.000000
33.343712 15.728000 3.000000
32.581715 14.533000 3.000000
33.234715 13.275000 3.000000
32.472713 12.079000 3.000000
33.125713 10.821000 3.000000
32.363712 9.626000 3.000000
35.087715 23.025999 3.000000
35.741715 21.768000 3.000000
34.978714 20.572001 3.000000
35.632713 19.313999 3.000000
34.869713 18.119000 3.000000
35.523712 16.861000 3.000000
34.760712 15.665000 3.000000
35.414715 14.407000 3.000000
34.651714 13.212000 3.000000
37.920715 22.900000 3.000000
37.157715 21.705000 3.000000
37.811714 20.447001 3.000000
37.048714 19.250999 3.000000
37.702713 17.993000 3.000000
36.939713 16.798000 3.000000
39.337715 22.837000 3.000000
39.990715 21.579000 3.000000
39.228714 20.384001 3.000000
0.000000 0.000000 6.400000
2.724000 2.579000 6.400000
2.070000 1.321000 6.400000
2.833000 0.126000 6.400000
4.686000 6.354000 6.400000
4.032000 5.096000 6.400000
4.795000 3.901000 6.400000
4.141000 2.642000 6.400000
4.904000 1.447000 6.400000
4.250000 0.189000 6.400000
6.647000 10.129000 6.400000
5.993000 8.871000 6.400000
6.756000 7.675000 6.400000
6.102000 6.417000 6.400000
6.865000 5.222000 6.400000
6.211000 3.963000 6.400000
6.974000 2.768000 6.400000
6.320000 1.510000 6.400000
7.083000 0.315000 6.400000
8.608000 13.904000 6.400000
7.955000 12.645001 6.400000
8.717000 11.450000 6.400000
8.064000 10.192000 6.400000
8.826000 8.996000 6.400000
8.173000 7.738000 6.400000
8.935000 6.543000 6.400000
8.282000 5.285000 6.400000
9.044000 4.089000 6.400000
8.390000 2.831000 6.400000
9.153000 1.636000 6.400000
8.499000 0.377000 6.400000
10.570000 17.677999 6.400000
9.916000 16.420000 6.400000
10.679000 15.225000 6.400000
10.025000 13.967000 6.400000
10.788000 12.771000 6.400000
10.134000 11.513000 6.400000
10.897000 10.318000 6.400000
10.243000 9.059000 6.400000
11.006000 7.864000 6.400000
10.352000 6.606000 6.400000
11.115000 5.410000 6.400000
10.461001 4.152000 6.400000
11.224000 2.957000 6.400000
10.570000 1.699000 6.400000
11.333000 0.503000 6.400000
12.531000 21.452999 6.400000
11.877000 20.195000 6.400000
12.640000 19.000000 6.400000
11.986000 17.740999 6.400000
12.749000 16.546000 6.400000
12.095000 15.288000 6.400000
12.858000 14.092000 6.400000
12.204000 12.834000 6.400000
12.967000 11.639000 6.400000
12.313000 10.381000 6.400000
13.076000 9.185000 6.400000
12.422000 7.927000 6.400000
13.185000 6.732000 6.400000
12.531000 5.473000 6.400000
13.294000 4.278000 6.400000
12.640000 3.020000 6.400000
13.403000 1.824000 6.400000
12.749000 0.566000 6.400000
14.602000 22.774000 6.400000
13.948000 21.516001 6.400000
14.711001 20.320999 6.400000
14.057000 19.062000 6.400000
14.820000 17.867001 6.400000
14.166000 16.608999 6.400000
14.929000 15.414000 6.400000
14.275000 14.155000 6.400000
15.037000 12.960000 6.400000
14.384000 11.702000 6.400000
15.146000 10.506000 6.400000
14.493000 9.248000 6.400000
15.255000 8.053000 6.400000
14.602000 6.795000 6.400000
15.364000 5.599000 6.400000
14.711001 4.341000 6.400000
15.473000 3.146000 6.400000
14.820000 1.887000 6.400000
15.582000 0.692000 6.400000
16.018000 22.837000 6.400000
16.781000 21.642000 6.400000
16.127001 20.384001 6.400000
16.889999 19.188000 6.400000
16.236000 17.930000 6.400000
16.999001 16.735001 6.400000
16.344999 15.476000 6.400000
17.108000 14.281000 6.400000
16.454000 13.023000 6.400000
17.216999 11.828000 6.400000
16.563000 10.569000 6.400000
17.326000 9.374000 6.400000
16.672001 8.116000 6.400000
17.434999 6.920000 6.400000
16.781000 5.662000 6.400000
17.544001 4.467000 6.400000
16.889999 3.209000 6.400000
17.653000 2.013000 6.400000
16.999001 0.755000 6.400000
18.851000 22.962999 6.400000
18.198000 21.705000 6.400000
18.959999 20.509001 6.400000
18.306999 19.250999 6.400000
19.069000 18.056000 6.400000
18.415001 16.798000 6.400000
19.177999 15.602000 6.400000
18.524000 14.344000 6.400000
19.287001 13.149000 6.400000
18.632999 11.890000 6.400000
19.396000 10.695000 6.400000
18.742001 9.437000 6.400000
19.504999 8.242000 6.400000
18.851000 6.983000 6.400000
19.614000 5.788000 6.400000
18.959999 4.530000 6.400000
19.723000 3.334000 6.400000
19.069000 2.076000 6.400000
19.832001 0.881000 6.400000
20.268000 23.025999 6.400000
21.031000 21.830999 6.400000
20.377001 20.572001 6.400000
21.139999 19.377001 6.400000
20.486000 18.119000 6.400000
21.249001 16.923000 6.400000
20.594999 15.665000 6.400000
21.358000 14.470000 6.400000
20.704000 13.212000 6.400000
21.466999 12.016000 6.400000
20.813000 10.758000 6.400000
21.576000 9.563000 6.400000
20.922001 8.304000 6.400000
21.684999 7.109000 6.400000
21.031000 5.851000 6.400000
21.792999 4.656000 6.400000
21.139999 3.397000 6.400000
21.902000 2.202000 6.400000
21.249001 0.944000 6.400000
23.101000 23.152000 6.400000
22.447001 21.893000 6.400000
23.209999 20.698000 6.400000
22.556000 19.440001 6.400000
23.319000 18.245001 6.400000
22.665001 16.986000 6.400000
23.427999 15.791000 6.400000
22.774000 14.533000 6.400000
23.537001 13.337000 6.400000
22.882999 12.079000 6.400000
23.646000 10.884000 6.400000
22.992001 9.626000 6.400000
23.754999 8.430000 6.400000
23.101000 7.172000 6.400000
23.864000 5.977000 6.400000
23.209999 4.718000 6.400000
23.973000 3.523000 6.400000
23.319000 2.265000 6.400000
24.082001 1.070000 6.400000
24.518000 23.215000 6.400000
25.280001 22.018999 6.400000
24.627001 20.761000 6.400000
25.389000 19.566000 6.400000
24.736000 18.306999 6.400000
25.497999 17.111999 6.400000
24.844999 15.854000 6.400000
25.607000 14.659000 6.400000
24.954001 13.400000 6.400000
25.716000 12.205000 6.400000
25.062000 10.947000 6.400000
25.825001 9.751000 6.400000
25.171000 8.493000 6.400000
25.934000 7.298000 6.400000
25.280001 6.040000 6.400000
26.042999 4.844000 6.400000
25.389000 3.586000 6.400000
26.152000 2.391000 6.400000
25.497999 1.132000 6.400000
27.351000 23.340000 6.400000
26.697001 22.082001 6.400000
27.459999 20.886999 6.400000
26.806000 19.629000 6.400000
27.569000 18.433001 6.400000
26.915001 17.174999 6.400000
27.024000 14.721000 6.400000
27.132999 12.268000 6.400000
27.242001 9.814000 6.400000
27.351000 7.361000 6.400000
27.459999 4.907000 6.400000
27.569000 2.454000 6.400000
27.677713 15.980000 6.400000
27.786713 13.526000 6.400000
27.895714 11.073000 6.400000
28.004713 8.619001 6.400000
28.113714 6.165000 6.400000
28.222714 3.712000 6.400000
28.331713 1.258000 6.400000
28.767714 23.403000 6.400000
29.529713 22.208000 6.400000
28.876713 20.950001 6.400000
29.638714 19.754000 6.400000
28.985714 18.496000 6.400000
29.747713 17.301001 6.400000
29.094713 16.042999 6.400000
29.856712 14.847000 6.400000
29.203713 13.589000 6.400000
29.965714 12.394000 6.400000
29.312714 11.135000 6.400000
30.074713 9.940000 6.400000
29.420713 8.682000 6.400000
30.183714 7.487000 6.400000
29.529713 6.228000 6.400000
30.292713 5.033000 6.400000
29.638714 3.775000 6.400000
31.600714 23.528999 6.400000
30.946713 22.271000 6.400000
31.709713 21.076000 6.400000
31.055714 19.817000 6.400000
31.818714 18.622000 6.400000
31.164713 17.364000 6.400000
31.927713 16.167999 6.400000
31.273714 14.910000 6.400000
32.036713 13.715000 6.400000
31.382713 12.457000 6.400000
32.145714 11.261000 6.400000
31.491713 10.003000 6.400000
32.254715 8.808000 6.400000
31.600714 7.549000 6.400000
33.016712 23.591999 6.400000
33.779713 22.396999 6.400000
33.125713 21.139000 6.400000
33.888714 19.943001 6.400000
33.234715 18.684999 6.400000
33.997715 17.490000 6.400000
33.343712 16.231001 6.400000
34.106712 15.036000 6.400000
33.452713 13.778000 6.400000
34.215713 12.582000 6.400000
33.561714 11.324000 6.400000
35.850716 23.718000 6.400000
35.196712 22.459999 6.400000
35.959713 21.264000 6.400000
35.305714 20.006000 6.400000
36.067715 18.811001 6.400000
35.414715 17.552999 6.400000
36.176712 16.357000 6.400000
35.523712 15.099000 6.400000
37.266712 23.781000 6.400000
38.029713 22.586001 6.400000
37.375713 21.327000 6.400000
38.138714 20.132000 6.400000
37.484715 18.874001 6.400000
40.099712 23.907000 6.400000
39.445713 22.648001 6.400000
