file written by TR
1.000000
95.721008 0.000000 0.000000
47.860504 82.896825 0.000000
0.000000 0.000000 15.000000
Type1
6076
Cartesian
0.725000 1.219000 3.000000
0.000000 0.000000 3.000000
2.899000 4.875000 3.000000
2.174000 3.656000 3.000000
2.867000 2.419000 3.000000
2.143000 1.201000 3.000000
5.073000 8.532000 3.000000
4.348000 7.313000 3.000000
5.041000 6.076000 3.000000
4.317000 4.857000 3.000000
5.010000 3.620000 3.000000
4.285000 2.401000 3.000000
4.978000 1.164000 3.000000
7.247000 12.188000 3.000000
6.522000 10.969000 3.000000
7.215000 9.732000 3.000000
6.491000 8.513000 3.000000
7.184000 7.276000 3.000000
6.459000 6.058000 3.000000
7.152000 4.821000 3.000000
6.428000 3.602000 3.000000
7.121000 2.365000 3.000000
6.396000 1.146000 3.000000
9.421000 15.844000 3.000000
8.696000 14.626000 3.000000
9.389000 13.389000 3.000000
8.665000 12.170000 3.000000
9.358000 10.933000 3.000000
8.633000 9.714000 3.000000
9.326000 8.477000 3.000000
8.602000 7.258000 3.000000
9.295000 6.021000 3.000000
8.570000 4.802000 3.000000
9.262999 3.565000 3.000000
8.539000 2.347000 3.000000
9.232000 1.110000 3.000000
11.595000 19.500999 3.000000
10.870000 18.282000 3.000000
11.563000 17.045000 3.000000
10.839000 15.826000 3.000000
11.532000 14.589000 3.000000
10.807000 13.370000 3.000000
11.500000 12.133000 3.000000
10.776000 10.915000 3.000000
11.469000 9.678000 3.000000
10.744001 8.459000 3.000000
11.437000 7.222000 3.000000
10.713000 6.003000 3.000000
11.406000 4.766000 3.000000
10.681000 3.547000 3.000000
11.374000 2.310000 3.000000
10.650000 1.091000 3.000000
13.769000 23.157000 3.000000
13.044000 21.938000 3.000000
13.737001 20.701000 3.000000
13.012999 19.483000 3.000000
13.706000 18.246000 3.000000
12.981000 17.027000 3.000000
13.674000 15.790000 3.000000
12.950000 14.571000 3.000000
13.643000 13.334000 3.000000
12.918000 12.115000 3.000000
13.611000 10.878000 3.000000
12.887000 9.659000 3.000000
13.580000 8.422000 3.000000
12.855000 7.204000 3.000000
13.548000 5.967000 3.000000
12.824000 4.748000 3.000000
13.517000 3.511000 3.000000
12.792000 2.292000 3.000000
13.485000 1.055000 3.000000
15.943000 26.813999 3.000000
15.218000 25.594999 3.000000
15.911000 24.358000 3.000000
15.187000 23.139000 3.000000
15.880000 21.902000 3.000000
15.155000 20.683001 3.000000
15.848000 19.445999 3.000000
15.124000 18.226999 3.000000
15.817000 16.990000 3.000000
15.092000 15.772000 3.000000
15.785000 14.535000 3.000000
15.061000 13.316000 3.000000
15.754000 12.079000 3.000000
15.029000 10.860000 3.000000
15.722000 9.623000 3.000000
14.998000 8.404000 3.000000
15.691000 7.167000 3.000000
14.966000 5.948000 3.000000
15.659000 4.711000 3.000000
14.935000 3.493000 3.000000
15.628000 2.256000 3.000000
14.903000 1.037000 3.000000
18.117001 30.469999 3.000000
17.392000 29.250999 3.000000
18.086000 28.014000 3.000000
17.361000 26.795000 3.000000
18.054001 25.558001 3.000000
17.329000 24.340000 3.000000
18.023001 23.103001 3.000000
17.298000 21.884001 3.000000
17.990999 20.646999 3.000000
17.266001 19.427999 3.000000
17.959999 18.191000 3.000000
17.235001 16.972000 3.000000
17.928000 15.735000 3.000000
17.202999 14.516000 3.000000
17.896000 13.279000 3.000000
17.172001 12.061000 3.000000
17.865000 10.824000 3.000000
17.139999 9.605000 3.000000
17.833000 8.368000 3.000000
17.108999 7.149000 3.000000
17.802000 5.912000 3.000000
17.077000 4.693000 3.000000
17.770000 3.456000 3.000000
17.046000 2.238000 3.000000
17.739000 1.001000 3.000000
20.291000 34.125999 3.000000
19.566000 32.908001 3.000000
20.260000 31.671000 3.000000
19.535000 30.452000 3.000000
20.228001 29.215000 3.000000
19.503000 27.996000 3.000000
20.197001 26.759001 3.000000
19.472000 25.540001 3.000000
20.165001 24.302999 3.000000
19.440001 23.084999 3.000000
20.134001 21.848000 3.000000
19.409000 20.629000 3.000000
20.101999 19.392000 3.000000
19.377001 18.173000 3.000000
20.070999 16.936001 3.000000
19.346001 15.717000 3.000000
20.039000 14.480000 3.000000
19.313999 13.261000 3.000000
20.007999 12.024000 3.000000
19.283001 10.806000 3.000000
19.976000 9.569000 3.000000
19.250999 8.350000 3.000000
19.945000 7.113000 3.000000
19.219999 5.894000 3.000000
19.913000 4.657000 3.000000
19.188000 3.438000 3.000000
19.881001 2.201000 3.000000
19.157000 0.982000 3.000000
22.465000 37.783001 3.000000
21.740000 36.563999 3.000000
22.434000 35.327000 3.000000
21.709000 34.108002 3.000000
22.402000 32.870998 3.000000
21.677000 31.653000 3.000000
22.371000 30.416000 3.000000
21.646000 29.197001 3.000000
22.339001 27.959999 3.000000
21.614000 26.740999 3.000000
22.308001 25.504000 3.000000
21.583000 24.285000 3.000000
22.275999 23.048000 3.000000
21.551001 21.829000 3.000000
22.245001 20.591999 3.000000
21.520000 19.374001 3.000000
22.212999 18.136999 3.000000
21.488001 16.917999 3.000000
22.181999 15.681000 3.000000
21.457001 14.462000 3.000000
22.150000 13.225000 3.000000
21.424999 12.006000 3.000000
22.119000 10.769000 3.000000
21.393999 9.550000 3.000000
22.087000 8.313000 3.000000
21.361999 7.095000 3.000000
22.056000 5.858000 3.000000
21.330999 4.639000 3.000000
22.024000 3.402000 3.000000
21.299000 2.183000 3.000000
21.993000 0.946000 3.000000
24.639000 41.438999 3.000000
23.914000 40.221001 3.000000
24.608000 38.984001 3.000000
23.882999 37.764999 3.000000
24.576000 36.528000 3.000000
23.851000 35.308998 3.000000
24.545000 34.071999 3.000000
23.820000 32.853001 3.000000
24.513001 31.615999 3.000000
23.788000 30.396999 3.000000
24.482000 29.160000 3.000000
23.757000 27.941999 3.000000
24.450001 26.705000 3.000000
23.725000 25.486000 3.000000
24.419001 24.249001 3.000000
23.694000 23.030001 3.000000
24.386999 21.792999 3.000000
23.662001 20.573999 3.000000
24.356001 19.337000 3.000000
23.631000 18.118000 3.000000
24.323999 16.881001 3.000000
23.599001 15.663000 3.000000
24.292999 14.426000 3.000000
23.568001 13.207000 3.000000
24.261000 11.970000 3.000000
23.535999 10.751000 3.000000
24.230000 9.514000 3.000000
23.504999 8.295000 3.000000
24.198000 7.058000 3.000000
23.473000 5.839000 3.000000
24.167000 4.602000 3.000000
23.442000 3.384000 3.000000
24.135000 2.147000 3.000000
23.410000 0.928000 3.000000
26.813000 45.096001 3.000000
26.089001 43.876999 3.000000
26.782000 42.639999 3.000000
26.056999 41.421002 3.000000
26.750000 40.183998 3.000000
26.025999 38.965000 3.000000
26.719000 37.728001 3.000000
25.994000 36.509998 3.000000
26.687000 35.272999 3.000000
25.962999 34.054001 3.000000
26.656000 32.817001 3.000000
25.931000 31.598000 3.000000
26.624001 30.361000 3.000000
25.899000 29.142000 3.000000
26.593000 27.905001 3.000000
25.868000 26.686001 3.000000
26.561001 25.448999 3.000000
25.836001 24.231001 3.000000
26.530001 22.994000 3.000000
25.805000 21.775000 3.000000
26.497999 20.538000 3.000000
25.773001 19.319000 3.000000
26.466999 18.082001 3.000000
25.742001 16.863001 3.000000
26.434999 15.626000 3.000000
25.709999 14.407000 3.000000
26.403999 13.170000 3.000000
25.679001 11.952000 3.000000
26.372000 10.715000 3.000000
25.646999 9.496000 3.000000
26.341000 8.259000 3.000000
25.615999 7.040000 3.000000
26.309000 5.803000 3.000000
25.584000 4.584000 3.000000
26.278000 3.347000 3.000000
25.552999 2.128000 3.000000
26.246000 0.891000 3.000000
28.987000 48.751999 3.000000
28.263001 47.533001 3.000000
28.955999 46.296001 3.000000
28.231001 45.077999 3.000000
28.924000 43.841000 3.000000
28.200001 42.622002 3.000000
28.893000 41.384998 3.000000
28.167999 40.166000 3.000000
28.861000 38.929001 3.000000
28.136999 37.709999 3.000000
28.830000 36.473000 3.000000
28.105000 35.254002 3.000000
28.798000 34.016998 3.000000
28.073999 32.799000 3.000000
28.767000 31.562000 3.000000
28.042000 30.343000 3.000000
28.735001 29.106001 3.000000
28.011000 27.886999 3.000000
28.704000 26.650000 3.000000
27.979000 25.431000 3.000000
28.672001 24.194000 3.000000
27.948000 22.975000 3.000000
28.641001 21.738001 3.000000
27.916000 20.520000 3.000000
28.608999 19.283001 3.000000
27.884001 18.063999 3.000000
28.577999 16.827000 3.000000
27.853001 15.608000 3.000000
28.546000 14.371000 3.000000
27.820999 13.152000 3.000000
28.514999 11.915000 3.000000
27.790001 10.696000 3.000000
28.483000 9.459000 3.000000
27.757999 8.241000 3.000000
28.452000 7.004000 3.000000
27.726999 5.785000 3.000000
28.420000 4.548000 3.000000
27.695000 3.329000 3.000000
28.389000 2.092000 3.000000
27.664000 0.873000 3.000000
31.160999 52.409000 3.000000
30.437000 51.189999 3.000000
31.129999 49.952999 3.000000
30.405001 48.734001 3.000000
31.098000 47.497002 3.000000
30.374001 46.278000 3.000000
31.066999 45.041000 3.000000
30.341999 43.821999 3.000000
31.035000 42.584999 3.000000
30.311001 41.367001 3.000000
31.004000 40.130001 3.000000
30.278999 38.910999 3.000000
30.972000 37.674000 3.000000
30.247999 36.455002 3.000000
30.941000 35.217999 3.000000
30.216000 33.999001 3.000000
30.909000 32.762001 3.000000
30.184999 31.542999 3.000000
30.878000 30.306000 3.000000
30.153000 29.087999 3.000000
30.846001 27.851000 3.000000
30.122000 26.632000 3.000000
30.815001 25.395000 3.000000
30.090000 24.176001 3.000000
30.783001 22.938999 3.000000
30.059000 21.719999 3.000000
30.752001 20.483000 3.000000
30.027000 19.264000 3.000000
30.719999 18.027000 3.000000
29.996000 16.809000 3.000000
30.688999 15.572000 3.000000
29.964001 14.353000 3.000000
30.657000 13.116000 3.000000
29.933001 11.897000 3.000000
30.625999 10.660000 3.000000
29.900999 9.441000 3.000000
30.594000 8.204000 3.000000
29.869000 6.985000 3.000000
30.563000 5.748000 3.000000
29.837999 4.530000 3.000000
30.531000 3.293000 3.000000
29.806000 2.074000 3.000000
30.500000 0.837000 3.000000
33.334999 56.064999 3.000000
32.611000 54.846001 3.000000
33.304001 53.609001 3.000000
32.578999 52.389999 3.000000
33.271999 51.153000 3.000000
32.548000 49.935001 3.000000
33.241001 48.698002 3.000000
32.515999 47.479000 3.000000
33.209000 46.242001 3.000000
32.485001 45.022999 3.000000
33.178001 43.785999 3.000000
32.452999 42.567001 3.000000
33.146000 41.330002 3.000000
32.422001 40.111000 3.000000
33.115002 38.874001 3.000000
32.389999 37.655998 3.000000
33.083000 36.418999 3.000000
32.359001 35.200001 3.000000
33.051998 33.963001 3.000000
32.327000 32.744000 3.000000
33.020001 31.507000 3.000000
32.296001 30.288000 3.000000
32.988998 29.051001 3.000000
32.264000 27.832001 3.000000
32.957001 26.594999 3.000000
32.233002 25.377001 3.000000
32.925999 24.139999 3.000000
32.201000 22.921000 3.000000
32.894001 21.684000 3.000000
32.169998 20.465000 3.000000
32.862999 19.228001 3.000000
32.138000 18.009001 3.000000
32.831001 16.771999 3.000000
32.106998 15.553000 3.000000
32.799999 14.316000 3.000000
32.075001 13.098000 3.000000
32.768002 11.861000 3.000000
32.043999 10.642000 3.000000
32.737000 9.405000 3.000000
32.012001 8.186000 3.000000
32.705002 6.949000 3.000000
31.981001 5.730000 3.000000
32.674000 4.493000 3.000000
31.948999 3.274000 3.000000
32.641998 2.037000 3.000000
31.917999 0.819000 3.000000
35.508999 59.721001 3.000000
34.785000 58.502998 3.000000
35.478001 57.265999 3.000000
34.752998 56.047001 3.000000
35.445999 54.810001 3.000000
34.722000 53.591000 3.000000
35.415001 52.354000 3.000000
34.689999 51.134998 3.000000
35.382999 49.897999 3.000000
34.659000 48.679001 3.000000
35.352001 47.442001 3.000000
34.626999 46.223999 3.000000
35.320000 44.987000 3.000000
34.596001 43.768002 3.000000
35.289001 42.530998 3.000000
34.563999 41.312000 3.000000
35.257000 40.075001 3.000000
34.533001 38.855999 3.000000
35.226002 37.619000 3.000000
34.500999 36.400002 3.000000
35.194000 35.162998 3.000000
34.470001 33.945000 3.000000
35.162998 32.708000 3.000000
34.438000 31.489000 3.000000
35.131000 30.252001 3.000000
34.407001 29.033001 3.000000
35.099998 27.796000 3.000000
34.375000 26.577000 3.000000
35.068001 25.340000 3.000000
34.344002 24.121000 3.000000
35.036999 22.884001 3.000000
34.312000 21.666000 3.000000
35.005001 20.429001 3.000000
34.280998 19.209999 3.000000
34.973999 17.973000 3.000000
34.249001 16.754000 3.000000
34.942001 15.517000 3.000000
34.217999 14.298000 3.000000
34.910999 13.061000 3.000000
34.186001 11.842000 3.000000
34.879002 10.605000 3.000000
34.154999 9.387000 3.000000
34.848000 8.150000 3.000000
34.123001 6.931000 3.000000
34.816002 5.694000 3.000000
34.091999 4.475000 3.000000
34.785000 3.238000 3.000000
34.060001 2.019000 3.000000
34.752998 0.782000 3.000000
37.682999 63.377998 3.000000
36.959000 62.159000 3.000000
37.652000 60.922001 3.000000
36.926998 59.702999 3.000000
37.619999 58.466000 3.000000
36.896000 57.247002 3.000000
37.589001 56.009998 3.000000
36.863998 54.792000 3.000000
37.556999 53.555000 3.000000
36.833000 52.335999 3.000000
37.526001 51.098999 3.000000
36.800999 49.880001 3.000000
37.494000 48.643002 3.000000
36.770001 47.424000 3.000000
37.463001 46.187000 3.000000
36.737999 44.967999 3.000000
37.431000 43.730999 3.000000
36.707001 42.513000 3.000000
37.400002 41.276001 3.000000
36.674999 40.056999 3.000000
37.368000 38.820000 3.000000
36.644001 37.601002 3.000000
37.337002 36.363998 3.000000
36.612000 35.145001 3.000000
37.305000 33.908001 3.000000
36.581001 32.688999 3.000000
37.273998 31.452000 3.000000
36.549000 30.233999 3.000000
37.242001 28.997000 3.000000
36.518002 27.778000 3.000000
37.210999 26.541000 3.000000
36.486000 25.322001 3.000000
37.179001 24.084999 3.000000
36.455002 22.865999 3.000000
37.147999 21.629000 3.000000
36.423000 20.410000 3.000000
37.116001 19.173000 3.000000
36.391998 17.955000 3.000000
37.084999 16.718000 3.000000
36.360001 15.499000 3.000000
37.053001 14.262000 3.000000
36.328999 13.043000 3.000000
37.021999 11.806000 3.000000
36.297001 10.587000 3.000000
36.990002 9.350000 3.000000
36.265999 8.131000 3.000000
36.959000 6.894000 3.000000
36.234001 5.676000 3.000000
36.926998 4.439000 3.000000
36.202999 3.220000 3.000000
36.896000 1.983000 3.000000
36.171001 0.764000 3.000000
39.856998 67.033997 3.000000
39.132999 65.815003 3.000000
39.826000 64.578003 3.000000
39.101002 63.360001 3.000000
39.793999 62.123001 3.000000
39.070000 60.903999 3.000000
39.763000 59.667000 3.000000
39.037998 58.448002 3.000000
39.730999 57.210999 3.000000
39.007000 55.992001 3.000000
39.700001 54.755001 3.000000
38.974999 53.535999 3.000000
39.667999 52.299000 3.000000
38.944000 51.081001 3.000000
39.637001 49.844002 3.000000
38.911999 48.625000 3.000000
39.605000 47.388000 3.000000
38.881001 46.168999 3.000000
39.574001 44.931999 3.000000
38.848999 43.713001 3.000000
39.542000 42.476002 3.000000
38.818001 41.257000 3.000000
39.511002 40.020001 3.000000
38.785999 38.801998 3.000000
39.479000 37.564999 3.000000
38.755001 36.346001 3.000000
39.448002 35.109001 3.000000
38.723000 33.889999 3.000000
39.416000 32.653000 3.000000
38.692001 31.434000 3.000000
39.384998 30.197001 3.000000
38.660000 28.978001 3.000000
39.353001 27.740999 3.000000
38.629002 26.523001 3.000000
39.321999 25.285999 3.000000
38.597000 24.066999 3.000000
39.290001 22.830000 3.000000
38.566002 21.611000 3.000000
39.258999 20.374001 3.000000
38.534000 19.155001 3.000000
39.227001 17.917999 3.000000
38.502998 16.698999 3.000000
39.195999 15.462000 3.000000
38.471001 14.244000 3.000000
39.164001 13.007000 3.000000
38.439999 11.788000 3.000000
39.132999 10.551000 3.000000
38.408001 9.332000 3.000000
39.101002 8.095000 3.000000
38.376999 6.876000 3.000000
39.070000 5.639000 3.000000
38.345001 4.420000 3.000000
39.037998 3.183000 3.000000
38.313999 1.965000 3.000000
39.007000 0.728000 3.000000
42.032001 70.691002 3.000000
41.306999 69.472000 3.000000
42.000000 68.235001 3.000000
41.275002 67.015999 3.000000
41.969002 65.778999 3.000000
41.244000 64.559998 3.000000
41.937000 63.323002 3.000000
41.212002 62.104000 3.000000
41.905998 60.867001 3.000000
41.181000 59.648998 3.000000
41.874001 58.411999 3.000000
41.148998 57.193001 3.000000
41.841999 55.956001 3.000000
41.118000 54.737000 3.000000
41.811001 53.500000 3.000000
41.085999 52.280998 3.000000
41.778999 51.043999 3.000000
41.055000 49.825001 3.000000
41.748001 48.588001 3.000000
41.022999 47.369999 3.000000
41.716000 46.132999 3.000000
40.992001 44.914002 3.000000
41.685001 43.676998 3.000000
40.959999 42.458000 3.000000
41.653000 41.221001 3.000000
40.929001 40.001999 3.000000
41.622002 38.764999 3.000000
40.896999 37.546002 3.000000
41.590000 36.308998 3.000000
40.866001 35.091000 3.000000
41.558998 33.854000 3.000000
40.834000 32.634998 3.000000
41.527000 31.398001 3.000000
40.803001 30.179001 3.000000
41.495998 28.941999 3.000000
40.771000 27.723000 3.000000
41.464001 26.486000 3.000000
40.740002 25.267000 3.000000
41.432999 24.030001 3.000000
40.708000 22.812000 3.000000
41.401001 21.575001 3.000000
40.676998 20.356001 3.000000
41.369999 19.119000 3.000000
40.645001 17.900000 3.000000
41.338001 16.663000 3.000000
40.613998 15.444000 3.000000
41.306999 14.207000 3.000000
40.582001 12.988000 3.000000
41.275002 11.751000 3.000000
40.550999 10.533000 3.000000
41.244000 9.296000 3.000000
40.519001 8.077000 3.000000
41.212002 6.840000 3.000000
40.487999 5.621000 3.000000
41.181000 4.384000 3.000000
40.456001 3.165000 3.000000
41.148998 1.928000 3.000000
40.424999 0.709000 3.000000
44.206001 74.347000 3.000000
43.480999 73.127998 3.000000
44.174000 71.890999 3.000000
43.449001 70.671997 3.000000
44.143002 69.434998 3.000000
43.417999 68.217003 3.000000
44.111000 66.980003 3.000000
43.386002 65.761002 3.000000
44.080002 64.524002 3.000000
43.355000 63.305000 3.000000
44.048000 62.068001 3.000000
43.323002 60.848999 3.000000
44.016998 59.612000 3.000000
43.292000 58.393002 3.000000
43.985001 57.155998 3.000000
43.259998 55.938000 3.000000
43.953999 54.701000 3.000000
43.229000 53.481999 3.000000
43.922001 52.244999 3.000000
43.196999 51.026001 3.000000
43.890999 49.789001 3.000000
43.166000 48.570000 3.000000
43.859001 47.333000 3.000000
43.133999 46.113998 3.000000
43.827000 44.876999 3.000000
43.103001 43.659000 3.000000
43.796002 42.422001 3.000000
43.070999 41.202999 3.000000
43.764000 39.966000 3.000000
43.040001 38.747002 3.000000
43.733002 37.509998 3.000000
43.007999 36.291000 3.000000
43.701000 35.054001 3.000000
42.977001 33.834999 3.000000
43.669998 32.598000 3.000000
42.945000 31.379999 3.000000
43.638000 30.143000 3.000000
42.914002 28.924000 3.000000
43.606999 27.687000 3.000000
42.882000 26.468000 3.000000
43.575001 25.231001 3.000000
42.851002 24.011999 3.000000
43.543999 22.775000 3.000000
42.819000 21.556000 3.000000
43.512001 20.319000 3.000000
42.787998 19.101000 3.000000
43.480999 17.864000 3.000000
42.756000 16.645000 3.000000
43.449001 15.408000 3.000000
42.724998 14.189000 3.000000
43.417999 12.952000 3.000000
42.693001 11.733000 3.000000
43.386002 10.496000 3.000000
42.661999 9.277000 3.000000
43.355000 8.040000 3.000000
42.630001 6.822000 3.000000
43.323002 5.585000 3.000000
42.598999 4.366000 3.000000
43.292000 3.129000 3.000000
42.567001 1.910000 3.000000
43.259998 0.673000 3.000000
46.380001 78.002998 3.000000
45.654999 76.785004 3.000000
46.348000 75.547996 3.000000
45.623001 74.329002 3.000000
46.317001 73.092003 3.000000
45.591999 71.873001 3.000000
46.285000 70.636002 3.000000
45.560001 69.417000 3.000000
46.254002 68.180000 3.000000
45.528999 66.960999 3.000000
46.222000 65.723999 3.000000
45.497002 64.505997 3.000000
46.191002 63.269001 3.000000
45.466000 62.049999 3.000000
46.159000 60.813000 3.000000
45.433998 59.594002 3.000000
46.127998 58.356999 3.000000
45.403000 57.138000 3.000000
46.096001 55.901001 3.000000
45.370998 54.681999 3.000000
46.064999 53.445000 3.000000
45.340000 52.227001 3.000000
46.033001 50.990002 3.000000
45.307999 49.771000 3.000000
46.001999 48.534000 3.000000
45.277000 47.314999 3.000000
45.970001 46.077999 3.000000
45.244999 44.859001 3.000000
45.938999 43.622002 3.000000
45.214001 42.403000 3.000000
45.907002 41.166000 3.000000
45.181999 39.948002 3.000000
45.876000 38.710999 3.000000
45.151001 37.492001 3.000000
45.844002 36.255001 3.000000
45.119000 35.035999 3.000000
45.812000 33.799000 3.000000
45.088001 32.580002 3.000000
45.780998 31.343000 3.000000
45.056000 30.124001 3.000000
45.749001 28.886999 3.000000
45.025002 27.669001 3.000000
45.717999 26.431999 3.000000
44.993000 25.212999 3.000000
45.686001 23.976000 3.000000
44.962002 22.757000 3.000000
45.654999 21.520000 3.000000
44.930000 20.301001 3.000000
45.623001 19.063999 3.000000
44.898998 17.844999 3.000000
45.591999 16.608000 3.000000
44.867001 15.390000 3.000000
45.560001 14.153000 3.000000
44.835999 12.934000 3.000000
45.528999 11.697000 3.000000
44.804001 10.478000 3.000000
45.497002 9.241000 3.000000
44.772999 8.022000 3.000000
45.466000 6.785000 3.000000
44.741001 5.566000 3.000000
45.433998 4.329000 3.000000
44.709999 3.111000 3.000000
45.403000 1.874000 3.000000
44.678001 0.655000 3.000000
48.554001 81.660004 3.000000
47.828999 80.441002 3.000000
48.521999 79.204002 3.000000
47.797001 77.985001 3.000000
48.491001 76.748001 3.000000
47.765999 75.528999 3.000000
48.459000 74.292000 3.000000
47.734001 73.073998 3.000000
48.428001 71.836998 3.000000
47.702999 70.617996 3.000000
48.396000 69.380997 3.000000
47.671002 68.162003 3.000000
48.365002 66.925003 3.000000
47.639999 65.706001 3.000000
48.333000 64.469002 3.000000
47.608002 63.250000 3.000000
48.301998 62.013000 3.000000
47.577000 60.794998 3.000000
48.270001 59.557999 3.000000
47.544998 58.339001 3.000000
48.238998 57.102001 3.000000
47.514000 55.882999 3.000000
48.207001 54.646000 3.000000
47.481999 53.426998 3.000000
48.175999 52.189999 3.000000
47.451000 50.971001 3.000000
48.144001 49.734001 3.000000
47.418999 48.515999 3.000000
48.112999 47.278999 3.000000
47.388000 46.060001 3.000000
48.081001 44.823002 3.000000
47.355999 43.604000 3.000000
48.049999 42.367001 3.000000
47.325001 41.147999 3.000000
48.018002 39.910999 3.000000
47.292999 38.692001 3.000000
47.987000 37.455002 3.000000
47.262001 36.237000 3.000000
47.955002 35.000000 3.000000
47.230000 33.780998 3.000000
47.924000 32.543999 3.000000
47.199001 31.325001 3.000000
47.891998 30.087999 3.000000
47.167000 28.869000 3.000000
47.861000 27.632000 3.000000
47.136002 26.413000 3.000000
47.828999 25.176001 3.000000
47.104000 23.958000 3.000000
47.797001 22.721001 3.000000
47.073002 21.502001 3.000000
47.765999 20.264999 3.000000
47.041000 19.046000 3.000000
47.734001 17.809000 3.000000
47.009998 16.590000 3.000000
47.702999 15.353000 3.000000
46.978001 14.134000 3.000000
47.671002 12.897000 3.000000
46.946999 11.679000 3.000000
47.639999 10.442000 3.000000
46.915001 9.223000 3.000000
47.608002 7.986000 3.000000
46.883999 6.767000 3.000000
47.577000 5.530000 3.000000
46.852001 4.311000 3.000000
47.544998 3.074000 3.000000
46.820999 1.855000 3.000000
47.514000 0.618000 3.000000
50.695999 82.860001 3.000000
49.972000 81.641998 3.000000
50.665001 80.404999 3.000000
49.939999 79.185997 3.000000
50.632999 77.948998 3.000000
49.909000 76.730003 3.000000
50.602001 75.492996 3.000000
49.876999 74.274002 3.000000
50.570000 73.037003 3.000000
49.846001 71.818001 3.000000
50.539001 70.581001 3.000000
49.813999 69.362999 3.000000
50.507000 68.126000 3.000000
49.782001 66.906998 3.000000
50.476002 65.669998 3.000000
49.750999 64.450996 3.000000
50.444000 63.214001 3.000000
49.719002 61.994999 3.000000
50.412998 60.757999 3.000000
49.688000 59.539001 3.000000
50.381000 58.301998 3.000000
49.655998 57.084000 3.000000
50.349998 55.847000 3.000000
49.625000 54.627998 3.000000
50.318001 53.390999 3.000000
49.592999 52.172001 3.000000
50.286999 50.935001 3.000000
49.562000 49.716000 3.000000
50.255001 48.479000 3.000000
49.529999 47.259998 3.000000
50.223999 46.022999 3.000000
49.499001 44.805000 3.000000
50.192001 43.568001 3.000000
49.466999 42.348999 3.000000
50.160999 41.112000 3.000000
49.436001 39.893002 3.000000
50.129002 38.655998 3.000000
49.403999 37.437000 3.000000
50.098000 36.200001 3.000000
49.373001 34.980999 3.000000
50.066002 33.744000 3.000000
49.341000 32.526001 3.000000
50.035000 31.289000 3.000000
49.310001 30.070000 3.000000
50.002998 28.833000 3.000000
49.278000 27.614000 3.000000
49.972000 26.377001 3.000000
49.247002 25.158001 3.000000
49.939999 23.921000 3.000000
49.215000 22.702000 3.000000
49.909000 21.465000 3.000000
49.183998 20.247000 3.000000
49.876999 19.010000 3.000000
49.152000 17.791000 3.000000
49.846001 16.554001 3.000000
49.120998 15.335000 3.000000
49.813999 14.098000 3.000000
49.089001 12.879000 3.000000
49.782001 11.642000 3.000000
49.057999 10.423000 3.000000
49.750999 9.187000 3.000000
49.026001 7.968000 3.000000
49.719002 6.731000 3.000000
48.994999 5.512000 3.000000
49.688000 4.275000 3.000000
48.963001 3.056000 3.000000
49.655998 1.819000 3.000000
48.931999 0.600000 3.000000
52.113998 82.842003 3.000000
52.806999 81.605003 3.000000
52.083000 80.386002 3.000000
52.776001 79.149002 3.000000
52.050999 77.931000 3.000000
52.744000 76.694000 3.000000
52.020001 75.474998 3.000000
52.713001 74.237999 3.000000
51.987999 73.018997 3.000000
52.681000 71.781998 3.000000
51.957001 70.563004 3.000000
52.650002 69.325996 3.000000
51.924999 68.107002 3.000000
52.618000 66.870003 3.000000
51.894001 65.652000 3.000000
52.587002 64.415001 3.000000
51.862000 63.195999 3.000000
52.555000 61.959000 3.000000
51.830002 60.740002 3.000000
52.523998 59.502998 3.000000
51.799000 58.284000 3.000000
52.492001 57.047001 3.000000
51.766998 55.827999 3.000000
52.460999 54.591000 3.000000
51.736000 53.373001 3.000000
52.429001 52.136002 3.000000
51.703999 50.917000 3.000000
52.397999 49.680000 3.000000
51.673000 48.460999 3.000000
52.366001 47.223999 3.000000
51.640999 46.005001 3.000000
52.334999 44.768002 3.000000
51.610001 43.549000 3.000000
52.303001 42.312000 3.000000
51.577999 41.094002 3.000000
52.271999 39.856998 3.000000
51.547001 38.638000 3.000000
52.240002 37.401001 3.000000
51.514999 36.181999 3.000000
52.209000 34.945000 3.000000
51.484001 33.726002 3.000000
52.176998 32.488998 3.000000
51.452000 31.270000 3.000000
52.146000 30.033001 3.000000
51.421002 28.815001 3.000000
52.113998 27.577999 3.000000
51.389000 26.358999 3.000000
52.083000 25.122000 3.000000
51.358002 23.903000 3.000000
52.050999 22.666000 3.000000
51.326000 21.447001 3.000000
52.020001 20.209999 3.000000
51.294998 18.992001 3.000000
51.987999 17.754999 3.000000
51.263000 16.535999 3.000000
51.957001 15.299000 3.000000
51.231999 14.080000 3.000000
51.924999 12.843000 3.000000
51.200001 11.624000 3.000000
51.894001 10.387000 3.000000
51.168999 9.168000 3.000000
51.862000 7.931000 3.000000
51.137001 6.713000 3.000000
51.830002 5.476000 3.000000
51.105999 4.257000 3.000000
51.799000 3.020000 3.000000
51.074001 1.801000 3.000000
51.766998 0.564000 3.000000
54.950001 82.806000 3.000000
54.224998 81.586998 3.000000
54.917999 80.349998 3.000000
54.194000 79.130997 3.000000
54.887001 77.893997 3.000000
54.161999 76.675003 3.000000
54.855000 75.438004 3.000000
54.131000 74.220001 3.000000
54.824001 72.983002 3.000000
54.098999 71.764000 3.000000
54.792000 70.527000 3.000000
54.068001 69.307999 3.000000
54.761002 68.070999 3.000000
54.035999 66.851997 3.000000
54.729000 65.614998 3.000000
54.005001 64.396004 3.000000
54.698002 63.159000 3.000000
53.973000 61.941002 3.000000
54.666000 60.703999 3.000000
53.942001 59.485001 3.000000
54.634998 58.248001 3.000000
53.910000 57.028999 3.000000
54.603001 55.792000 3.000000
53.879002 54.573002 3.000000
54.571999 53.335999 3.000000
53.847000 52.117001 3.000000
54.540001 50.880001 3.000000
53.814999 49.661999 3.000000
54.508999 48.424999 3.000000
53.784000 47.206001 3.000000
54.477001 45.969002 3.000000
53.751999 44.750000 3.000000
54.445999 43.513000 3.000000
53.721001 42.293999 3.000000
54.414001 41.056999 3.000000
53.688999 39.838001 3.000000
54.382999 38.602001 3.000000
53.658001 37.382999 3.000000
54.351002 36.146000 3.000000
53.625999 34.926998 3.000000
54.320000 33.689999 3.000000
53.595001 32.471001 3.000000
54.287998 31.233999 3.000000
53.563000 30.014999 3.000000
54.257000 28.778000 3.000000
53.532001 27.559999 3.000000
54.224998 26.323000 3.000000
53.500000 25.104000 3.000000
54.194000 23.867001 3.000000
53.469002 22.648001 3.000000
54.161999 21.410999 3.000000
53.437000 20.191999 3.000000
54.131000 18.955000 3.000000
53.405998 17.736000 3.000000
54.098999 16.499001 3.000000
53.374001 15.281000 3.000000
54.068001 14.044000 3.000000
53.342999 12.825000 3.000000
54.035999 11.588000 3.000000
53.311001 10.369000 3.000000
54.005001 9.132000 3.000000
53.279999 7.913000 3.000000
53.973000 6.676000 3.000000
53.248001 5.457000 3.000000
53.942001 4.220000 3.000000
53.216999 3.002000 3.000000
53.910000 1.765000 3.000000
53.185001 0.546000 3.000000
56.368000 82.788002 3.000000
57.061001 81.551002 3.000000
56.335999 80.332001 3.000000
57.028999 79.095001 3.000000
56.305000 77.876000 3.000000
56.998001 76.639000 3.000000
56.272999 75.419998 3.000000
56.966000 74.182999 3.000000
56.242001 72.963997 3.000000
56.935001 71.726997 3.000000
56.209999 70.509003 3.000000
56.903000 69.272003 3.000000
56.179001 68.053001 3.000000
56.872002 66.816002 3.000000
56.146999 65.597000 3.000000
56.840000 64.360001 3.000000
56.116001 63.140999 3.000000
56.808998 61.903999 3.000000
56.084000 60.685001 3.000000
56.777000 59.448002 3.000000
56.053001 58.230000 3.000000
56.745998 56.993000 3.000000
56.021000 55.773998 3.000000
56.714001 54.536999 3.000000
55.990002 53.318001 3.000000
56.682999 52.081001 3.000000
55.958000 50.862000 3.000000
56.651001 49.625000 3.000000
55.926998 48.407001 3.000000
56.619999 47.169998 3.000000
55.895001 45.951000 3.000000
56.588001 44.714001 3.000000
55.863998 43.494999 3.000000
56.556999 42.257999 3.000000
55.832001 41.039001 3.000000
56.525002 39.801998 3.000000
55.799999 38.583000 3.000000
56.494000 37.346001 3.000000
55.769001 36.127998 3.000000
56.462002 34.890999 3.000000
55.737000 33.672001 3.000000
56.431000 32.435001 3.000000
55.706001 31.216000 3.000000
56.398998 29.979000 3.000000
55.674000 28.760000 3.000000
56.368000 27.523001 3.000000
55.643002 26.304001 3.000000
56.335999 25.066999 3.000000
55.611000 23.849001 3.000000
56.305000 22.611999 3.000000