file written by TR
1.000000
19.181973 0.000000 0.000000
9.590986 16.612075 0.000000
0.000000 0.000000 15.000000
Type1
244
Cartesian
0.786000 1.180000 3.000000
0.000000 0.000000 3.000000
3.145000 4.720000 3.000000
2.358000 3.540000 3.000000
2.987000 2.269000 3.000000
2.201000 1.089000 3.000000
5.503000 8.261000 3.000000
4.717000 7.081000 3.000000
5.346000 5.810000 3.000000
4.560000 4.630000 3.000000
5.189000 3.359000 3.000000
4.402000 2.179000 3.000000
5.031000 0.908000 3.000000
7.861000 11.801000 3.000000
7.075000 10.621000 3.000000
7.704000 9.350000 3.000000
6.918000 8.170000 3.000000
7.547000 6.899000 3.000000
6.761000 5.719000 3.000000
7.390000 4.448000 3.000000
6.604000 3.268000 3.000000
7.233000 1.997000 3.000000
6.446000 0.817000 3.000000
10.220000 15.341000 3.000000
9.434000 14.161000 3.000000
10.063000 12.890000 3.000000
9.277000 11.710000 3.000000
9.905000 10.439000 3.000000
9.119000 9.259000 3.000000
9.748000 7.988000 3.000000
8.962000 6.808000 3.000000
9.591000 5.537000 3.000000
8.805000 4.357000 3.000000
9.434000 3.086000 3.000000
8.648000 1.906000 3.000000
9.277000 0.635000 3.000000
12.421000 16.431000 3.000000
11.635000 15.250000 3.000000
12.264000 13.980000 3.000000
11.478000 12.799000 3.000000
12.107000 11.529000 3.000000
11.321000 10.349000 3.000000
11.949000 9.078000 3.000000
11.163000 7.898000 3.000000
11.792000 6.627000 3.000000
11.006000 5.447000 3.000000
11.635000 4.176000 3.000000
10.849000 2.996000 3.000000
11.478000 1.725000 3.000000
10.692000 0.545000 3.000000
13.836001 16.340000 3.000000
14.465000 15.069000 3.000000
13.679000 13.889000 3.000000
14.308000 12.618000 3.000000
13.522000 11.438000 3.000000
14.151000 10.167000 3.000000
13.364000 8.987001 3.000000
13.993000 7.716000 3.000000
13.207000 6.536000 3.000000
13.836001 5.265000 3.000000
13.050000 4.085000 3.000000
13.679000 2.814000 3.000000
12.893000 1.634000 3.000000
13.522000 0.363000 3.000000
16.666000 16.158001 3.000000
15.880000 14.978000 3.000000
16.509001 13.707000 3.000000
15.723000 12.527000 3.000000
16.351999 11.256000 3.000000
15.566000 10.076000 3.000000
16.195000 8.805000 3.000000
15.408000 7.625000 3.000000
16.037001 6.354000 3.000000
15.251000 5.174000 3.000000
15.880000 3.903000 3.000000
15.094000 2.723000 3.000000
15.723000 1.452000 3.000000
14.937000 0.272000 3.000000
18.080999 16.066999 3.000000
18.709999 14.797000 3.000000
17.924000 13.616000 3.000000
18.552999 12.346000 3.000000
17.767000 11.165000 3.000000
18.396000 9.895001 3.000000
17.610001 8.715000 3.000000
18.239000 7.444000 3.000000
17.452000 6.264000 3.000000
18.080999 4.993000 3.000000
17.295000 3.813000 3.000000
17.924000 2.542000 3.000000
17.138001 1.362000 3.000000
17.767000 0.091000 3.000000
20.911972 15.886000 3.000000
20.124973 14.706000 3.000000
20.753973 13.435000 3.000000
19.967972 12.255000 3.000000
20.596973 10.984000 3.000000
19.810972 9.804000 3.000000
20.439972 8.533000 3.000000
19.653973 7.353000 3.000000
20.282972 6.082000 3.000000
19.495972 4.902000 3.000000
20.124973 3.631000 3.000000
19.338972 2.451000 3.000000
22.326973 15.795000 3.000000
22.955973 14.524000 3.000000
22.168972 13.344000 3.000000
22.797972 12.073000 3.000000
22.011972 10.893000 3.000000
22.640972 9.622000 3.000000
21.854973 8.442000 3.000000
22.483973 7.171000 3.000000
21.697973 5.991000 3.000000
25.156973 15.614000 3.000000
24.370972 14.433000 3.000000
24.998972 13.163000 3.000000
24.212973 11.982000 3.000000
24.841972 10.712000 3.000000
24.055973 9.532000 3.000000
26.571972 15.523000 3.000000
27.200973 14.252000 3.000000
26.414972 13.072000 3.000000
0.000000 0.000000 6.400000
2.673000 2.633000 6.400000
2.044000 1.362000 6.400000
2.830000 0.182000 6.400000
4.560000 6.445000 6.400000
3.931000 5.174000 6.400000
4.717000 3.994000 6.400000
4.088000 2.723000 6.400000
4.874000 1.543000 6.400000
4.245000 0.272000 6.400000
6.446000 10.258000 6.400000
5.817000 8.987001 6.400000
6.604000 7.807000 6.400000
5.975000 6.536000 6.400000
6.761000 5.356000 6.400000
6.132000 4.085000 6.400000
6.918000 2.905000 6.400000
6.289000 1.634000 6.400000
7.075000 0.454000 6.400000
8.333000 14.070000 6.400000
7.704000 12.799000 6.400000
8.490000 11.619001 6.400000
7.861000 10.349000 6.400000
8.648000 9.168000 6.400000
8.019000 7.898000 6.400000
8.805000 6.717000 6.400000
8.176000 5.447000 6.400000
8.962000 4.266000 6.400000
8.333000 2.996000 6.400000
9.119000 1.816000 6.400000
8.490000 0.545000 6.400000
10.377000 15.432000 6.400000
9.748000 14.161000 6.400000
10.534000 12.981000 6.400000
9.905000 11.710000 6.400000
10.692000 10.530000 6.400000
10.063000 9.259000 6.400000
10.849000 8.079000 6.400000
10.220000 6.808000 6.400000
11.006000 5.628000 6.400000
10.377000 4.357000 6.400000
11.163000 3.177000 6.400000
10.534000 1.906000 6.400000
11.321000 0.726000 6.400000
11.792000 15.523000 6.400000
12.578000 14.343000 6.400000
11.949000 13.072000 6.400000
12.736000 11.892000 6.400000
12.107000 10.621000 6.400000
12.893000 9.441000 6.400000
12.264000 8.170000 6.400000
13.050000 6.990000 6.400000
12.421000 5.719000 6.400000
13.207000 4.539000 6.400000
12.578000 3.268000 6.400000
13.364000 2.088000 6.400000
12.736000 0.817000 6.400000
14.622000 15.704000 6.400000
13.993000 14.433000 6.400000
14.780000 13.253000 6.400000
14.151000 11.982000 6.400000
14.937000 10.802000 6.400000
14.308000 9.532000 6.400000
15.094000 8.351000 6.400000
14.465000 7.081000 6.400000
15.251000 5.900000 6.400000
14.622000 4.630000 6.400000
15.408000 3.450000 6.400000
14.780000 2.179000 6.400000
15.566000 0.999000 6.400000
16.037001 15.795000 6.400000
16.823999 14.615000 6.400000
16.195000 13.344000 6.400000
16.981001 12.164000 6.400000
16.351999 10.893000 6.400000
17.138001 9.713000 6.400000
16.509001 8.442000 6.400000
17.295000 7.262000 6.400000
16.666000 5.991000 6.400000
17.452000 4.811000 6.400000
16.823999 3.540000 6.400000
17.610001 2.360000 6.400000
16.981001 1.089000 6.400000
18.868000 15.977000 6.400000
18.239000 14.706000 6.400000
19.025000 13.526000 6.400000
18.396000 12.255000 6.400000
18.552999 9.804000 6.400000
18.709999 7.353000 6.400000
18.868000 4.902000 6.400000
19.025000 2.451000 6.400000
19.181973 11.075000 6.400000
19.338972 8.624000 6.400000
19.495972 6.173000 6.400000
19.653973 3.722000 6.400000
19.810972 1.271000 6.400000
20.282972 16.066999 6.400000
21.068972 14.887000 6.400000
20.439972 13.616000 6.400000
21.225973 12.436000 6.400000
20.596973 11.165000 6.400000
21.382973 9.985000 6.400000
20.753973 8.715000 6.400000
21.539972 7.534000 6.400000
20.911972 6.264000 6.400000
21.697973 5.083000 6.400000
21.068972 3.813000 6.400000
23.112972 16.249001 6.400000
22.483973 14.978000 6.400000
23.269972 13.798000 6.400000
22.640972 12.527000 6.400000
23.426972 11.347000 6.400000
22.797972 10.076000 6.400000
23.583973 8.896000 6.400000
22.955973 7.625000 6.400000
24.527973 16.340000 6.400000
25.313972 15.160000 6.400000
24.684973 13.889000 6.400000
25.470972 12.709000 6.400000
24.841972 11.438000 6.400000
27.357971 16.521000 6.400000
26.728973 15.250000 6.400000
