file written by TR
1.000000
70.200371 0.000000 0.000000
35.100185 60.795304 0.000000
0.000000 0.000000 15.000000
Type1
3268
Cartesian
0.730000 1.215000 3.000000
0.000000 0.000000 3.000000
2.921000 4.862000 3.000000
2.191000 3.646000 3.000000
2.878000 2.406000 3.000000
2.148000 1.191000 3.000000
5.113000 8.508000 3.000000
4.382000 7.292000 3.000000
5.070000 6.052000 3.000000
4.339000 4.837000 3.000000
5.027000 3.597000 3.000000
4.296000 2.381000 3.000000
4.984000 1.141000 3.000000
7.304000 12.154000 3.000000
6.573000 10.939000 3.000000
7.261000 9.698000 3.000000
6.530000 8.483000 3.000000
7.218000 7.243000 3.000000
6.487000 6.027000 3.000000
7.175000 4.787000 3.000000
6.444000 3.572000 3.000000
7.132000 2.332000 3.000000
6.401000 1.116000 3.000000
9.495000 15.800000 3.000000
8.764000 14.585000 3.000000
9.452000 13.345000 3.000000
8.721000 12.129000 3.000000
9.409000 10.889000 3.000000
8.678000 9.674000 3.000000
9.366000 8.433000 3.000000
8.635000 7.218000 3.000000
9.323000 5.978000 3.000000
8.592000 4.762000 3.000000
9.280000 3.522000 3.000000
8.549000 2.307000 3.000000
9.237001 1.067000 3.000000
11.686000 19.447001 3.000000
10.955000 18.231001 3.000000
11.643000 16.990999 3.000000
10.912000 15.776000 3.000000
11.600000 14.535000 3.000000
10.869000 13.320000 3.000000
11.557000 12.080000 3.000000
10.826000 10.864000 3.000000
11.514000 9.624000 3.000000
10.784000 8.409000 3.000000
11.471000 7.168000 3.000000
10.741000 5.953000 3.000000
11.428000 4.713000 3.000000
10.698000 3.497000 3.000000
11.385000 2.257000 3.000000
10.655000 1.042000 3.000000
13.877000 23.093000 3.000000
13.146000 21.877001 3.000000
13.834000 20.636999 3.000000
13.103000 19.422001 3.000000
13.791000 18.181999 3.000000
13.061000 16.966000 3.000000
13.748000 15.726000 3.000000
13.018000 14.511000 3.000000
13.705000 13.270001 3.000000
12.975000 12.055000 3.000000
13.662000 10.815000 3.000000
12.932000 9.599000 3.000000
13.619001 8.359000 3.000000
12.889000 7.144000 3.000000
13.576000 5.903000 3.000000
12.846000 4.688000 3.000000
13.533000 3.448000 3.000000
12.803000 2.232000 3.000000
13.490000 0.992000 3.000000
16.068001 26.739000 3.000000
15.338000 25.524000 3.000000
16.025000 24.283001 3.000000
15.295000 23.068001 3.000000
15.982000 21.827999 3.000000
15.252000 20.611999 3.000000
15.939000 19.372000 3.000000
15.209000 18.157000 3.000000
15.896000 16.917000 3.000000
15.166000 15.701000 3.000000
15.853000 14.461001 3.000000
15.123000 13.245000 3.000000
15.810000 12.005000 3.000000
15.080000 10.790000 3.000000
15.767000 9.550000 3.000000
15.037000 8.334000 3.000000
15.724000 7.094000 3.000000
14.994000 5.879000 3.000000
15.681000 4.638000 3.000000
14.951000 3.423000 3.000000
15.638000 2.183000 3.000000
14.908000 0.967000 3.000000
18.259001 30.385000 3.000000
17.528999 29.170000 3.000000
18.216000 27.930000 3.000000
17.486000 26.714001 3.000000
18.173000 25.474001 3.000000
17.443001 24.259001 3.000000
18.129999 23.018000 3.000000
17.400000 21.802999 3.000000
18.087000 20.563000 3.000000
17.357000 19.347000 3.000000
18.044001 18.107000 3.000000
17.313999 16.892000 3.000000
18.000999 15.652000 3.000000
17.271000 14.436000 3.000000
17.958000 13.196000 3.000000
17.228001 11.980000 3.000000
17.915001 10.740000 3.000000
17.184999 9.525000 3.000000
17.872000 8.285000 3.000000
17.142000 7.069000 3.000000
17.829000 5.829000 3.000000
17.099001 4.614000 3.000000
17.785999 3.373000 3.000000
17.056000 2.158000 3.000000
17.743000 0.918000 3.000000
20.450001 34.030998 3.000000
19.719999 32.816002 3.000000
20.407000 31.576000 3.000000
19.677000 30.360001 3.000000
20.364000 29.120001 3.000000
19.634001 27.905001 3.000000
20.320999 26.665001 3.000000
19.591000 25.448999 3.000000
20.278000 24.209000 3.000000
19.548000 22.994000 3.000000
20.235001 21.753000 3.000000
19.504999 20.538000 3.000000
20.191999 19.298000 3.000000
19.462000 18.082001 3.000000
20.149000 16.841999 3.000000
19.419001 15.627000 3.000000
20.106001 14.386000 3.000000
19.375999 13.171000 3.000000
20.063000 11.931000 3.000000
19.333000 10.715000 3.000000
20.020000 9.475000 3.000000
19.290001 8.260000 3.000000
19.976999 7.020000 3.000000
19.247000 5.804000 3.000000
19.934000 4.564000 3.000000
19.204000 3.349000 3.000000
19.892000 2.108000 3.000000
19.160999 0.893000 3.000000
22.641001 37.678001 3.000000
21.910999 36.462002 3.000000
22.598000 35.222000 3.000000
21.868000 34.007000 3.000000
22.555000 32.765999 3.000000
21.825001 31.551001 3.000000
22.511999 30.311001 3.000000
21.782000 29.094999 3.000000
22.469000 27.855000 3.000000
21.739000 26.639999 3.000000
22.426001 25.400000 3.000000
21.695999 24.184000 3.000000
22.382999 22.944000 3.000000
21.653000 21.729000 3.000000
22.340000 20.488001 3.000000
21.610001 19.273001 3.000000
22.297001 18.033001 3.000000
21.567000 16.817000 3.000000
22.254000 15.577000 3.000000
21.524000 14.362001 3.000000
22.211001 13.121000 3.000000
21.481001 11.906000 3.000000
22.169001 10.666000 3.000000
21.438000 9.450000 3.000000
22.125999 8.210000 3.000000
21.395000 6.995000 3.000000
22.083000 5.755000 3.000000
21.351999 4.539000 3.000000
22.040001 3.299000 3.000000
21.309000 2.084000 3.000000
21.997000 0.843000 3.000000
24.832001 41.324001 3.000000
24.101999 40.109001 3.000000
24.789000 38.868000 3.000000
24.059000 37.653000 3.000000
24.746000 36.412998 3.000000
24.016001 35.196999 3.000000
24.702999 33.957001 3.000000
23.973000 32.742001 3.000000
24.660000 31.500999 3.000000
23.930000 30.285999 3.000000
24.617001 29.046000 3.000000
23.886999 27.830000 3.000000
24.573999 26.590000 3.000000
23.844000 25.375000 3.000000
24.531000 24.135000 3.000000
23.801001 22.919001 3.000000
24.489000 21.679001 3.000000
23.757999 20.464001 3.000000
24.445999 19.223000 3.000000
23.715000 18.007999 3.000000
24.403000 16.768000 3.000000
23.672001 15.552000 3.000000
24.360001 14.312000 3.000000
23.629000 13.097000 3.000000
24.316999 11.856000 3.000000
23.586001 10.641000 3.000000
24.274000 9.401000 3.000000
23.542999 8.185000 3.000000
24.231001 6.945000 3.000000
23.500000 5.730000 3.000000
24.188000 4.490000 3.000000
23.457001 3.274000 3.000000
24.145000 2.034000 3.000000
23.414000 0.819000 3.000000
27.023001 44.970001 3.000000
26.292999 43.755001 3.000000
26.980000 42.514999 3.000000
26.250000 41.299000 3.000000
26.937000 40.058998 3.000000
26.207001 38.844002 3.000000
26.893999 37.603001 3.000000
26.164000 36.388000 3.000000
26.851000 35.147999 3.000000
26.121000 33.931999 3.000000
26.808001 32.692001 3.000000
26.077999 31.476999 3.000000
26.766001 30.236000 3.000000
26.035000 29.021000 3.000000
26.723000 27.781000 3.000000
25.992001 26.565001 3.000000
26.680000 25.325001 3.000000
25.948999 24.110001 3.000000
26.636999 22.870001 3.000000
25.906000 21.653999 3.000000
26.594000 20.414000 3.000000
25.863001 19.198999 3.000000
26.551001 17.958000 3.000000
25.820000 16.743000 3.000000
26.507999 15.503000 3.000000
25.777000 14.287000 3.000000
26.465000 13.047000 3.000000
25.733999 11.832000 3.000000
26.422001 10.591000 3.000000
25.691000 9.376000 3.000000
26.379000 8.136000 3.000000
25.648001 6.920000 3.000000
26.336001 5.680000 3.000000
25.606001 4.465000 3.000000
26.292999 3.225000 3.000000
25.563000 2.009000 3.000000
26.250000 0.769000 3.000000
29.214001 48.616001 3.000000
28.483999 47.401001 3.000000
29.171000 46.160999 3.000000
28.441000 44.945000 3.000000
29.128000 43.705002 3.000000
28.398001 42.490002 3.000000
29.084999 41.250000 3.000000
28.355000 40.034000 3.000000
29.042999 38.793999 3.000000
28.312000 37.577999 3.000000
29.000000 36.338001 3.000000
28.268999 35.123001 3.000000
28.957001 33.882999 3.000000
28.226000 32.667000 3.000000
28.914000 31.427000 3.000000
28.183001 30.212000 3.000000
28.871000 28.971001 3.000000
28.139999 27.756000 3.000000
28.827999 26.516001 3.000000
28.097000 25.299999 3.000000
28.785000 24.059999 3.000000
28.054001 22.844999 3.000000
28.742001 21.605000 3.000000
28.011000 20.389000 3.000000
28.698999 19.149000 3.000000
27.968000 17.933001 3.000000
28.656000 16.693001 3.000000
27.924999 15.478000 3.000000
28.613001 14.238000 3.000000
27.882999 13.022000 3.000000
28.570000 11.782000 3.000000
27.840000 10.567000 3.000000
28.527000 9.326000 3.000000
27.797001 8.111000 3.000000
28.483999 6.871000 3.000000
27.754000 5.655000 3.000000
28.441000 4.415000 3.000000
27.711001 3.200000 3.000000
28.398001 1.960000 3.000000
27.667999 0.744000 3.000000
31.405001 52.263000 3.000000
30.674999 51.047001 3.000000
31.361999 49.806999 3.000000
30.632000 48.591999 3.000000
31.320000 47.351002 3.000000
30.589001 46.136002 3.000000
31.277000 44.896000 3.000000
30.546000 43.680000 3.000000
31.233999 42.439999 3.000000
30.503000 41.224998 3.000000
31.191000 39.985001 3.000000
30.459999 38.769001 3.000000
31.148001 37.528999 3.000000
30.417000 36.313000 3.000000
31.105000 35.073002 3.000000
30.374001 33.858002 3.000000
31.062000 32.618000 3.000000
30.330999 31.402000 3.000000
31.018999 30.162001 3.000000
30.288000 28.947001 3.000000
30.976000 27.705999 3.000000
30.245001 26.490999 3.000000
30.933001 25.250999 3.000000
30.202000 24.035000 3.000000
30.889999 22.795000 3.000000
30.160000 21.580000 3.000000
30.847000 20.340000 3.000000
30.117001 19.124001 3.000000
30.804001 17.884001 3.000000
30.073999 16.667999 3.000000
30.761000 15.428000 3.000000
30.031000 14.213000 3.000000
30.718000 12.973000 3.000000
29.988001 11.757000 3.000000
30.674999 10.517000 3.000000
29.945000 9.302000 3.000000
30.632000 8.061000 3.000000
29.902000 6.846000 3.000000
30.589001 5.606000 3.000000
29.858999 4.390000 3.000000
30.546000 3.150000 3.000000
29.816000 1.935000 3.000000
30.503000 0.695000 3.000000
33.597000 55.909000 3.000000
32.866001 54.693001 3.000000
33.554001 53.452999 3.000000
32.823002 52.237999 3.000000
33.511002 50.998001 3.000000
32.779999 49.782001 3.000000
33.467999 48.542000 3.000000
32.737000 47.327000 3.000000
33.424999 46.085999 3.000000
32.694000 44.870998 3.000000
33.382000 43.631000 3.000000
32.651001 42.415001 3.000000
33.339001 41.174999 3.000000
32.608002 39.959999 3.000000
33.296001 38.719002 3.000000
32.564999 37.504002 3.000000
33.252998 36.264000 3.000000
32.521999 35.048000 3.000000
33.209999 33.807999 3.000000
32.479000 32.592999 3.000000
33.167000 31.353001 3.000000
32.437000 30.136999 3.000000
33.124001 28.896999 3.000000
32.394001 27.681999 3.000000
33.081001 26.441000 3.000000
32.351002 25.226000 3.000000
33.037998 23.986000 3.000000
32.307999 22.770000 3.000000
32.994999 21.530001 3.000000
32.264999 20.315001 3.000000
32.952000 19.073999 3.000000
32.222000 17.858999 3.000000
32.909000 16.619000 3.000000
32.179001 15.403000 3.000000
32.866001 14.163000 3.000000
32.136002 12.948000 3.000000
32.823002 11.708000 3.000000
32.092999 10.492000 3.000000
32.779999 9.252000 3.000000
32.049999 8.037000 3.000000
32.737000 6.796000 3.000000
32.007000 5.581000 3.000000
32.694000 4.341000 3.000000
31.964001 3.125000 3.000000
32.651001 1.885000 3.000000
31.921000 0.670000 3.000000
35.787998 59.555000 3.000000
35.056999 58.340000 3.000000
35.744999 57.098999 3.000000
35.014000 55.883999 3.000000
35.702000 54.644001 3.000000
34.971001 53.428001 3.000000
35.659000 52.188000 3.000000
34.928001 50.973000 3.000000
35.616001 49.733002 3.000000
34.884998 48.516998 3.000000
35.573002 47.277000 3.000000
34.841999 46.062000 3.000000
35.529999 44.820999 3.000000
34.799000 43.605999 3.000000
35.487000 42.366001 3.000000
34.756000 41.150002 3.000000
35.444000 39.910000 3.000000
34.714001 38.695000 3.000000
35.401001 37.453999 3.000000
34.671002 36.238998 3.000000
35.358002 34.999001 3.000000
34.627998 33.783001 3.000000
35.314999 32.542999 3.000000
34.584999 31.327999 3.000000
35.271999 30.087999 3.000000
34.542000 28.872000 3.000000
35.229000 27.632000 3.000000
34.499001 26.417000 3.000000
35.186001 25.176001 3.000000
34.456001 23.961000 3.000000
35.143002 22.721001 3.000000
34.412998 21.504999 3.000000
35.099998 20.264999 3.000000
34.369999 19.049999 3.000000
35.056999 17.809000 3.000000
34.327000 16.594000 3.000000
35.014000 15.354000 3.000000
34.284000 14.137999 3.000000
34.971001 12.898000 3.000000
34.241001 11.683000 3.000000
34.928001 10.443000 3.000000
34.198002 9.227000 3.000000
34.884998 7.987000 3.000000
34.154999 6.772000 3.000000
34.841999 5.531000 3.000000
34.112000 4.316000 3.000000
34.799000 3.076000 3.000000
34.069000 1.860000 3.000000
34.756000 0.620000 3.000000
37.936001 60.745998 3.000000
37.205002 59.529999 3.000000
37.893002 58.290001 3.000000
37.161999 57.075001 3.000000
37.849999 55.834000 3.000000
37.119000 54.619000 3.000000
37.806999 53.379002 3.000000
37.076000 52.162998 3.000000
37.764000 50.923000 3.000000
37.033001 49.708000 3.000000
37.721001 48.467999 3.000000
36.991001 47.251999 3.000000
37.678001 46.012001 3.000000
36.948002 44.797001 3.000000
37.634998 43.556000 3.000000
36.904999 42.341000 3.000000
37.591999 41.101002 3.000000
36.862000 39.884998 3.000000
37.549000 38.645001 3.000000
36.819000 37.430000 3.000000
37.506000 36.188999 3.000000
36.776001 34.973999 3.000000
37.463001 33.734001 3.000000
36.733002 32.518002 3.000000
37.419998 31.278000 3.000000
36.689999 30.063000 3.000000
37.376999 28.823000 3.000000
36.646999 27.607000 3.000000
37.334000 26.367001 3.000000
36.604000 25.152000 3.000000
37.291000 23.910999 3.000000
36.561001 22.695999 3.000000
37.248001 21.455999 3.000000
36.518002 20.240000 3.000000
37.205002 19.000000 3.000000
36.474998 17.785000 3.000000
37.161999 16.544001 3.000000
36.431999 15.329000 3.000000
37.119000 14.089000 3.000000
36.389000 12.873000 3.000000
37.076000 11.633000 3.000000
36.346001 10.418000 3.000000
37.033001 9.178000 3.000000
36.303001 7.962000 3.000000
36.991001 6.722000 3.000000
36.259998 5.507000 3.000000
36.948002 4.266000 3.000000
36.216999 3.051000 3.000000
36.904999 1.811000 3.000000
36.174000 0.595000 3.000000
39.353001 60.721001 3.000000
40.041000 59.480999 3.000000
39.310001 58.264999 3.000000
39.998001 57.025002 3.000000
39.268002 55.810001 3.000000
39.955002 54.569000 3.000000
39.224998 53.354000 3.000000
39.911999 52.113998 3.000000
39.181999 50.897999 3.000000
39.869000 49.658001 3.000000
39.139000 48.443001 3.000000
39.826000 47.202999 3.000000
39.096001 45.987000 3.000000
39.783001 44.747002 3.000000
39.053001 43.532001 3.000000
39.740002 42.291000 3.000000
39.009998 41.076000 3.000000
39.696999 39.835999 3.000000
38.966999 38.619999 3.000000
39.653999 37.380001 3.000000
38.924000 36.165001 3.000000
39.611000 34.924000 3.000000
38.881001 33.709000 3.000000
39.568001 32.469002 3.000000
38.838001 31.253000 3.000000
39.525002 30.013001 3.000000
38.794998 28.798000 3.000000
39.481999 27.558001 3.000000
38.751999 26.341999 3.000000
39.438999 25.101999 3.000000
38.709000 23.886999 3.000000
39.396000 22.646000 3.000000
38.666000 21.431000 3.000000
39.353001 20.191000 3.000000
38.623001 18.975000 3.000000
39.310001 17.735001 3.000000
38.580002 16.520000 3.000000
39.268002 15.279000 3.000000
38.536999 14.064000 3.000000
39.224998 12.824000 3.000000
38.494000 11.608000 3.000000
39.181999 10.368000 3.000000
38.451000 9.153000 3.000000
39.139000 7.913000 3.000000
38.408001 6.697000 3.000000
39.096001 5.457000 3.000000
38.365002 4.242000 3.000000
39.053001 3.001000 3.000000
38.321999 1.786000 3.000000
39.009998 0.546000 3.000000
42.188999 60.671002 3.000000
41.459000 59.456001 3.000000
42.146000 58.216000 3.000000
41.416000 57.000000 3.000000
42.103001 55.759998 3.000000
41.373001 54.544998 3.000000
42.060001 53.304001 3.000000
41.330002 52.089001 3.000000
42.016998 50.848999 3.000000
41.286999 49.632999 3.000000
41.973999 48.393002 3.000000
41.244000 47.178001 3.000000
41.931000 45.938000 3.000000
41.201000 44.722000 3.000000
41.888001 43.481999 3.000000
41.158001 42.266998 3.000000
41.845001 41.026001 3.000000
41.115002 39.811001 3.000000
41.801998 38.570999 3.000000
41.071999 37.355000 3.000000
41.758999 36.115002 3.000000
41.028999 34.900002 3.000000
41.716000 33.659000 3.000000
40.986000 32.444000 3.000000
41.673000 31.204000 3.000000
40.943001 29.988001 3.000000
41.630001 28.747999 3.000000
40.900002 27.533001 3.000000
41.587002 26.292999 3.000000
40.856998 25.077000 3.000000
41.544998 23.837000 3.000000
40.813999 22.622000 3.000000
41.501999 21.381000 3.000000
40.771000 20.166000 3.000000
41.459000 18.926001 3.000000
40.728001 17.709999 3.000000
41.416000 16.469999 3.000000
40.685001 15.255000 3.000000
41.373001 14.014000 3.000000
40.641998 12.799000 3.000000
41.330002 11.559000 3.000000
40.598999 10.343000 3.000000
41.286999 9.103000 3.000000
40.556000 7.888000 3.000000
41.244000 6.648000 3.000000
40.513000 5.432000 3.000000
41.201000 4.192000 3.000000
40.470001 2.977000 3.000000
41.158001 1.736000 3.000000
40.428001 0.521000 3.000000
43.606999 60.646000 3.000000
44.293999 59.405998 3.000000
43.563999 58.191002 3.000000
44.250999 56.951000 3.000000
43.521000 55.735001 3.000000
44.208000 54.494999 3.000000
43.478001 53.279999 3.000000
44.165001 52.039001 3.000000
43.435001 50.824001 3.000000
44.122002 49.584000 3.000000
43.391998 48.368000 3.000000
44.078999 47.127998 3.000000
43.348999 45.912998 3.000000
44.035999 44.673000 3.000000
43.306000 43.457001 3.000000
43.993000 42.216999 3.000000
43.263000 41.000999 3.000000
43.950001 39.761002 3.000000
43.220001 38.546002 3.000000
43.907002 37.306000 3.000000
43.176998 36.090000 3.000000
43.863998 34.849999 3.000000
43.133999 33.634998 3.000000
43.821999 32.394001 3.000000
43.091000 31.179001 3.000000
43.778999 29.938999 3.000000
43.048000 28.723000 3.000000
43.736000 27.483000 3.000000
43.005001 26.268000 3.000000
43.693001 25.028000 3.000000
42.962002 23.812000 3.000000
43.650002 22.572001 3.000000
42.918999 21.356001 3.000000
43.606999 20.115999 3.000000
42.876000 18.900999 3.000000
43.563999 17.660999 3.000000
42.833000 16.445000 3.000000
43.521000 15.205000 3.000000
42.790001 13.990000 3.000000
43.478001 12.749000 3.000000
42.747002 11.534000 3.000000
43.435001 10.294000 3.000000
42.705002 9.078000 3.000000
43.391998 7.838000 3.000000
42.661999 6.623000 3.000000
43.348999 5.383000 3.000000
42.619000 4.167000 3.000000
43.306000 2.927000 3.000000
42.576000 1.711000 3.000000
43.263000 0.471000 3.000000
46.442001 60.597000 3.000000
45.712002 59.381000 3.000000
46.398998 58.140999 3.000000
45.668999 56.925999 3.000000
46.355999 55.686001 3.000000
45.625999 54.470001 3.000000
46.313000 53.230000 3.000000
45.583000 52.014999 3.000000
46.270001 50.773998 3.000000
45.540001 49.558998 3.000000
46.227001 48.319000 3.000000
45.497002 47.103001 3.000000
46.183998 45.862999 3.000000
45.453999 44.647999 3.000000
46.140999 43.407001 3.000000
45.410999 42.192001 3.000000
46.098999 40.952000 3.000000
45.368000 39.736000 3.000000
46.056000 38.495998 3.000000
45.325001 37.280998 3.000000
46.013000 36.041000 3.000000
45.282001 34.825001 3.000000
45.970001 33.584999 3.000000
45.238998 32.369999 3.000000
45.926998 31.129000 3.000000
45.195999 29.914000 3.000000
45.883999 28.674000 3.000000
45.153000 27.458000 3.000000
45.841000 26.218000 3.000000
45.110001 25.003000 3.000000
45.798000 23.763001 3.000000
45.067001 22.547001 3.000000
45.755001 21.306999 3.000000
45.023998 20.091000 3.000000
45.712002 18.851000 3.000000
44.981998 17.636000 3.000000
45.668999 16.396000 3.000000
44.938999 15.180000 3.000000
45.625999 13.940000 3.000000
44.896000 12.725000 3.000000
45.583000 11.484000 3.000000
44.853001 10.269000 3.000000
45.540001 9.029000 3.000000
44.810001 7.813000 3.000000
45.497002 6.573000 3.000000
44.766998 5.358000 3.000000
45.453999 4.118000 3.000000
44.723999 2.902000 3.000000
45.410999 1.662000 3.000000
44.681000 0.446000 3.000000
47.860001 60.571999 3.000000
48.547001 59.332001 3.000000
47.817001 58.116001 3.000000
48.504002 56.876000 3.000000
47.773998 55.660999 3.000000
48.460999 54.421002 3.000000
47.730999 53.205002 3.000000
48.417999 51.965000 3.000000
47.688000 50.750000 3.000000
48.375999 49.508999 3.000000
47.645001 48.293999 3.000000
48.333000 47.054001 3.000000
47.602001 45.838001 3.000000
48.290001 44.598000 3.000000
47.558998 43.382999 3.000000
48.247002 42.141998 3.000000
47.515999 40.926998 3.000000
48.203999 39.687000 3.000000
47.473000 38.471001 3.000000
48.160999 37.230999 3.000000
47.430000 36.015999 3.000000
48.118000 34.776001 3.000000
47.387001 33.560001 3.000000
48.075001 32.320000 3.000000
47.344002 31.105000 3.000000
48.032001 29.864000 3.000000
47.300999 28.649000 3.000000
47.988998 27.409000 3.000000
47.258999 26.193001 3.000000
47.945999 24.952999 3.000000
47.216000 23.738001 3.000000
47.903000 22.497000 3.000000
47.173000 21.282000 3.000000
47.860001 20.042000 3.000000
47.130001 18.826000 3.000000
47.817001 17.586001 3.000000
47.087002 16.371000 3.000000
47.773998 15.131000 3.000000
47.043999 13.915000 3.000000
47.730999 12.675000 3.000000
47.000999 11.460000 3.000000
47.688000 10.219000 3.000000
46.958000 9.004000 3.000000
47.645001 7.764000 3.000000
46.915001 6.548000 3.000000
47.602001 5.308000 3.000000
46.872002 4.093000 3.000000
47.558998 2.852000 3.000000
46.828999 1.637000 3.000000
47.515999 0.397000 3.000000
50.695000 60.521999 3.000000
49.965000 59.306999 3.000000
50.653000 58.067001 3.000000
49.922001 56.851002 3.000000
50.610001 55.611000 3.000000
49.879002 54.396000 3.000000
50.567001 53.155998 3.000000
49.835999 51.939999 3.000000
50.523998 50.700001 3.000000
49.792999 49.485001 3.000000
50.480999 48.244000 3.000000
49.750000 47.028999 3.000000
50.438000 45.789001 3.000000
49.707001 44.573002 3.000000
50.395001 43.333000 3.000000
49.664001 42.118000 3.000000
50.352001 40.876999 3.000000
49.620998 39.661999 3.000000
50.308998 38.422001 3.000000
49.577999 37.206001 3.000000
50.265999 35.966000 3.000000
49.535999 34.750999 3.000000
50.223000 33.511002 3.000000
49.493000 32.294998 3.000000
50.180000 31.055000 3.000000
49.450001 29.840000 3.000000
50.137001 28.599001 3.000000
49.407001 27.384001 3.000000
50.094002 26.143999 3.000000
49.363998 24.928000 3.000000
50.050999 23.688000 3.000000
49.320999 22.473000 3.000000
50.007999 21.232000 3.000000
49.278000 20.017000 3.000000
49.965000 18.777000 3.000000
49.235001 17.561001 3.000000
49.922001 16.320999 3.000000
49.192001 15.106000 3.000000
49.879002 13.866000 3.000000
49.148998 12.650000 3.000000
49.835999 11.410000 3.000000
49.105999 10.195000 3.000000
49.792999 8.954001 3.000000
49.063000 7.739000 3.000000
49.750000 6.499000 3.000000
49.020001 5.283000 3.000000
49.707001 4.043000 3.000000
48.977001 2.828000 3.000000
49.664001 1.587000 3.000000
48.933998 0.372000 3.000000
52.112999 60.498001 3.000000
52.800999 59.257000 3.000000
52.070000 58.042000 3.000000
52.757999 56.801998 3.000000
52.027000 55.585999 3.000000
52.715000 54.346001 3.000000
51.984001 53.131000 3.000000
52.672001 51.890999 3.000000
51.941002 50.674999 3.000000
52.629002 49.435001 3.000000
51.897999 48.220001 3.000000
52.585999 46.979000 3.000000
51.855000 45.764000 3.000000
52.542999 44.523998 3.000000
51.813000 43.307999 3.000000
52.500000 42.068001 3.000000
51.770001 40.853001 3.000000
52.457001 39.612000 3.000000
51.727001 38.396999 3.000000
52.414001 37.157001 3.000000
51.683998 35.941002 3.000000
52.370998 34.701000 3.000000
51.640999 33.486000 3.000000
52.327999 32.245998 3.000000
51.598000 31.030001 3.000000
52.285000 29.790001 3.000000
51.555000 28.575001 3.000000
52.242001 27.334000 3.000000
51.512001 26.119000 3.000000
52.199001 24.879000 3.000000
51.469002 23.663000 3.000000
52.155998 22.423000 3.000000
51.425999 21.208000 3.000000
52.112999 19.966999 3.000000
51.382999 18.752001 3.000000
52.070000 17.511999 3.000000
51.340000 16.296000 3.000000
52.027000 15.056000 3.000000
51.297001 13.841000 3.000000
51.984001 12.601000 3.000000
51.254002 11.385000 3.000000
51.941002 10.145001 3.000000
51.210999 8.930000 3.000000
51.897999 7.689000 3.000000
51.167999 6.474000 3.000000
51.855000 5.234000 3.000000
51.125000 4.018000 3.000000
51.813000 2.778000 3.000000
51.082001 1.563000 3.000000
51.770001 0.322000 3.000000
54.949001 60.448002 3.000000
54.217999 59.233002 3.000000
54.905998 57.992001 3.000000
54.174999 56.777000 3.000000
54.862999 55.536999 3.000000
54.132000 54.320999 3.000000
54.820000 53.081001 3.000000
54.090000 51.866001 3.000000
54.777000 50.625999 3.000000
54.047001 49.410000 3.000000
54.734001 48.169998 3.000000
54.004002 46.955002 3.000000
54.691002 45.714001 3.000000
53.960999 44.499001 3.000000
54.647999 43.258999 3.000000
53.917999 42.042999 3.000000
54.605000 40.803001 3.000000
53.875000 39.588001 3.000000
54.562000 38.347000 3.000000
53.832001 37.132000 3.000000
54.519001 35.891998 3.000000
53.789001 34.675999 3.000000
54.476002 33.436001 3.000000
53.745998 32.221001 3.000000
54.432999 30.981001 3.000000
53.702999 29.764999 3.000000
54.389999 28.525000 3.000000
53.660000 27.309999 3.000000
54.347000 26.069000 3.000000
53.617001 24.854000 3.000000
54.304001 23.614000 3.000000
53.574001 22.398001 3.000000
54.261002 21.158001 3.000000
53.530998 19.943001 3.000000
54.217999 18.702000 3.000000
53.487999 17.486999 3.000000
54.174999 16.247000 3.000000
53.445000 15.031000 3.000000
54.132000 13.791000 3.000000
53.402000 12.576000 3.000000
54.090000 11.336001 3.000000
53.359001 10.120000 3.000000
54.047001 8.880000 3.000000
53.316002 7.665000 3.000000
54.004002 6.424000 3.000000
53.272999 5.209000 3.000000
53.960999 3.969000 3.000000
53.230000 2.753000 3.000000
53.917999 1.513000 3.000000
53.187000 0.298000 3.000000
56.367001 60.423000 3.000000
57.054001 59.182999 3.000000
56.324001 57.967999 3.000000
57.011002 56.727001 3.000000
56.280998 55.512001 3.000000
56.967999 54.271999 3.000000
56.237999 53.056000 3.000000
56.924999 51.816002 3.000000
56.195000 50.601002 3.000000
56.882000 49.361000 3.000000
56.152000 48.145001 3.000000
56.839001 46.904999 3.000000
56.109001 45.688999 3.000000
56.796002 44.449001 3.000000
56.066002 43.234001 3.000000
56.752998 41.994000 3.000000
56.022999 40.778000 3.000000
56.709999 39.537998 3.000000
55.980000 38.323002 3.000000
56.667000 37.082001 3.000000
55.937000 35.867001 3.000000
56.624001 34.626999 3.000000
55.894001 33.410999 3.000000
56.581001 32.171001 3.000000
55.851002 30.955999 3.000000
56.537998 29.716000 3.000000
55.807999 28.500000 3.000000
56.494999 27.260000 3.000000
55.764999 26.044001 3.000000
56.452000 24.804001 3.000000
55.722000 23.589001 3.000000
56.409000 22.349001 3.000000
55.679001 21.132999 3.000000
56.367001 19.893000 3.000000
55.636002 18.677999 3.000000
56.324001 17.437000 3.000000
55.592999 16.222000 3.000000
56.280998 14.982000 3.000000
55.549999 13.766000 3.000000
56.237999 12.526000 3.000000
55.507000 11.311000 3.000000
56.195000 10.071000 3.000000
55.464001 8.855000 3.000000
56.152000 7.615000 3.000000
55.421002 6.400000 3.000000
56.109001 5.159000 3.000000
55.377998 3.944000 3.000000
56.066002 2.704000 3.000000
55.334999 1.488000 3.000000
56.022999 0.248000 3.000000
59.202000 60.374001 3.000000
58.472000 59.158001 3.000000
59.159000 57.917999 3.000000
58.429001 56.702999 3.000000
59.116001 55.462002 3.000000
58.386002 54.247002 3.000000
59.073002 53.007000 3.000000
58.342999 51.791000 3.000000
59.029999 50.550999 3.000000
58.299999 49.335999 3.000000
58.987000 48.096001 3.000000
58.257000 46.880001 3.000000
58.944000 45.639999 3.000000
58.214001 44.424000 3.000000
58.901001 43.183998 3.000000
58.171001 41.969002 3.000000
58.858002 40.729000 3.000000
58.127998 39.513000 3.000000
58.814999 38.272999 3.000000
58.084999 37.057999 3.000000
58.771999 35.817001 3.000000
58.042000 34.602001 3.000000
58.729000 33.362000 3.000000
57.999001 32.146000 3.000000
58.686001 30.906000 3.000000
57.956001 29.691000 3.000000
58.644001 28.451000 3.000000
57.912998 27.235001 3.000000
58.601002 25.995001 3.000000
57.869999 24.778999 3.000000
58.557999 23.539000 3.000000
57.827000 22.323999 3.000000
58.514999 21.084000 3.000000
57.784000 19.868000 3.000000
58.472000 18.628000 3.000000
57.741001 17.413000 3.000000
58.429001 16.172001 3.000000
57.698002 14.957000 3.000000
58.386002 13.717000 3.000000
57.654999 12.501000 3.000000
58.342999 11.261000 3.000000
57.612000 10.046000 3.000000
58.299999 8.806000 3.000000
57.569000 7.590000 3.000000
58.257000 6.350000 3.000000
57.526001 5.134000 3.000000
58.214001 3.894000 3.000000
57.484001 2.679000 3.000000
58.171001 1.439000 3.000000
57.441002 0.223000 3.000000
60.619999 60.348999 3.000000
61.306999 59.109001 3.000000
60.577000 57.893002 3.000000
61.264000 56.653000 3.000000
60.534000 55.438000 3.000000
61.221001 54.196999 3.000000
60.491001 52.981998 3.000000
61.178001 51.742001 3.000000
60.448002 50.526001 3.000000
61.134998 49.285999 3.000000
60.404999 48.070999 3.000000
61.091999 46.830002 3.000000
60.362000 45.615002 3.000000
61.049000 44.375000 3.000000
60.319000 43.159000 3.000000
61.006000 41.918999 3.000000
60.276001 40.703999 3.000000
60.963001 39.464001 3.000000
60.233002 38.248001 3.000000
60.921001 37.007999 3.000000
60.189999 35.792999 3.000000
60.877998 34.551998 3.000000
60.146999 33.337002 3.000000
60.834999 32.097000 3.000000
60.104000 30.881001 3.000000
60.792000 29.641001 3.000000
60.061001 28.426001 3.000000
60.749001 27.184999 3.000000
60.018002 25.969999 3.000000
60.706001 24.730000 3.000000
59.974999 23.514000 3.000000
60.662998 22.274000 3.000000
59.931999 21.059000 3.000000
60.619999 19.819000 3.000000
59.889000 18.603001 3.000000
60.577000 17.363001 3.000000
59.846001 16.148001 3.000000
60.534000 14.907000 3.000000
59.803001 13.692000 3.000000
60.491001 12.452000 3.000000
59.761002 11.236000 3.000000
60.448002 9.996000 3.000000
59.717999 8.781000 3.000000
60.404999 7.541000 3.000000
59.674999 6.325000 3.000000
60.362000 5.085000 3.000000
59.632000 3.869000 3.000000
60.319000 2.629000 3.000000
59.589001 1.414000 3.000000
60.276001 0.174000 3.000000
63.455002 60.299000 3.000000
62.724998 59.084000 3.000000
63.411999 57.844002 3.000000
62.681999 56.627998 3.000000
63.369000 55.388000 3.000000
62.639000 54.173000 3.000000
63.326000 52.931999 3.000000
62.596001 51.716999 3.000000
63.283001 50.477001 3.000000
62.553001 49.261002 3.000000
63.240002 48.021000 3.000000
62.509998 46.806000 3.000000