written by TR 
1.000000000 
99.974584900 0.000000000 0.000000000 
49.987292450 86.580530256 0.000000000 
0.000000000 0.000000000 18.400000000 
Type1 
6628
Cartesian 
0.72401600 1.21920000 7.50000000 
2.89607000 4.87680000 7.50000000 
2.17205000 3.65760000 7.50000000 
2.86590000 2.42098000 7.50000000 
2.14188000 1.20178000 7.50000000 
5.06811000 8.53439000 7.50000000 
4.34410000 7.31519000 7.50000000 
5.03795000 6.07858000 7.50000000 
4.31393000 4.85938000 7.50000000 
5.00778000 3.62276000 7.50000000 
4.28376000 2.40356000 7.50000000 
4.97761000 1.16695000 7.50000000 
6.48598000 8.51697000 7.50000000 
7.17983000 7.28036000 7.50000000 
6.45581000 6.06116000 7.50000000 
7.14966000 4.82454000 7.50000000 
6.42564000 3.60535000 7.50000000 
7.11949000 2.36873000 7.50000000 
6.39548000 1.14953000 7.50000000 
8.59769000 7.26294000 7.50000000 
8.56753000 4.80713000 7.50000000 
8.53736000 2.35131000 7.50000000 
9.32171000 8.48214000 7.50000000 
9.29154000 6.02633000 7.50000000 
9.26138000 3.57051000 7.50000000 
9.23121000 1.11470000 7.50000000 
10.73960000 8.46472000 7.50000000 
11.43340000 7.22811000 7.50000000 
10.70940000 6.00891000 7.50000000 
11.40330000 4.77229000 7.50000000 
10.67920000 3.55309000 7.50000000 
11.37310000 2.31648000 7.50000000 
10.64910000 1.09728000 7.50000000 
13.57530000 8.42989000 7.50000000 
12.85130000 7.21069000 7.50000000 
13.54510000 5.97407000 7.50000000 
12.82110000 4.75488000 7.50000000 
13.51500000 3.51826000 7.50000000 
12.79100000 2.29906000 7.50000000 
13.48480000 1.06244000 7.50000000 
14.99320000 8.41247000 7.50000000 
15.68700000 7.17586000 7.50000000 
14.96300000 5.95666000 7.50000000 
15.65690000 4.72004000 7.50000000 
14.93280000 3.50084000 7.50000000 
15.62670000 2.26423000 7.50000000 
14.90270000 1.04503000 7.50000000 
17.13510000 9.61425000 7.50000000 
17.82890000 8.37764000 7.50000000 
17.10490000 7.15844000 7.50000000 
17.79870000 5.92182000 7.50000000 
17.07470000 4.70262000 7.50000000 
17.76860000 3.46601000 7.50000000 
17.04460000 2.24681000 7.50000000 
17.73840000 1.01019000 7.50000000 
19.97080000 9.57942000 7.50000000 
19.24680000 8.36022000 7.50000000 
19.94060000 7.12360000 7.50000000 
19.21660000 5.90441000 7.50000000 
19.91040000 4.66779000 7.50000000 
19.18640000 3.44859000 7.50000000 
19.88030000 2.21197000 7.50000000 
19.15630000 0.99277600 7.50000000 
21.38860000 9.56200000 7.50000000 
22.08250000 8.32539000 7.50000000 
21.35850000 7.10619000 7.50000000 
22.05230000 5.86957000 7.50000000 
21.32830000 4.65037000 7.50000000 
22.02220000 3.41376000 7.50000000 
21.29810000 2.19456000 7.50000000 
21.99200000 0.95794200 7.50000000 
24.22440000 9.52717000 7.50000000 
23.50040000 8.30797000 7.50000000 
24.19420000 7.07135000 7.50000000 
23.47020000 5.85215000 7.50000000 
24.16400000 4.61554000 7.50000000 
23.44000000 3.39634000 7.50000000 
24.13390000 2.15972000 7.50000000 
23.40990000 0.94052500 7.50000000 
25.64220000 9.50975000 7.50000000 
26.33610000 8.27313000 7.50000000 
25.61210000 7.05394000 7.50000000 
26.30590000 5.81732000 7.50000000 
25.58190000 4.59812000 7.50000000 
26.27580000 3.36151000 7.50000000 
25.55170000 2.14231000 7.50000000 
26.24560000 0.90569100 7.50000000 
28.47800000 9.47492000 7.50000000 
27.75400000 8.25572000 7.50000000 
28.44780000 7.01910000 7.50000000 
27.72380000 5.79990000 7.50000000 
28.41760000 4.56329000 7.50000000 
27.69360000 3.34409000 7.50000000 
28.38750000 2.10747000 7.50000000 
27.66350000 0.88827300 7.50000000 
29.89580000 9.45750000 7.50000000 
30.58970000 8.22088000 7.50000000 
29.86570000 7.00168000 7.50000000 
30.55950000 5.76507000 7.50000000 
29.83550000 4.54587000 7.50000000 
30.52940000 3.30925000 7.50000000 
29.80530000 2.09006000 7.50000000 
30.49920000 0.85343900 7.50000000 
32.73160000 9.42266000 7.50000000 
32.00760000 8.20347000 7.50000000 
32.70140000 6.96685000 7.50000000 
31.97740000 5.74765000 7.50000000 
32.67120000 4.51104000 7.50000000 
31.94720000 3.29184000 7.50000000 
32.64110000 2.05522000 7.50000000 
31.91710000 0.83602200 7.50000000 
34.14940000 9.40525000 7.50000000 
34.84330000 8.16863000 7.50000000 
34.11930000 6.94943000 7.50000000 
34.81310000 5.71282000 7.50000000 
34.08910000 4.49362000 7.50000000 
34.78300000 3.25700000 7.50000000 
34.05890000 2.03780000 7.50000000 
34.75280000 0.80118800 7.50000000 
36.26120000 8.15121000 7.50000000 
36.23100000 5.69540000 7.50000000 
36.20080000 3.23959000 7.50000000 
36.17060000 0.78377100 7.50000000 
36.98520000 9.37041000 7.50000000 
36.95500000 6.91460000 7.50000000 
36.92480000 4.45878000 7.50000000 
36.89470000 2.00297000 7.50000000 
38.40300000 9.35300000 7.50000000 
39.09690000 8.11638000 7.50000000 
38.37290000 6.89718000 7.50000000 
39.06670000 5.66057000 7.50000000 
38.34270000 4.44137000 7.50000000 
39.03650000 3.20475000 7.50000000 
38.31250000 1.98555000 7.50000000 
39.00640000 0.74893600 7.50000000 
41.23880000 9.31816000 7.50000000 
40.51470000 8.09896000 7.50000000 
41.20860000 6.86235000 7.50000000 
40.48460000 5.64315000 7.50000000 
41.17840000 4.40653000 7.50000000 
40.45440000 3.18733000 7.50000000 
41.14830000 1.95072000 7.50000000 
40.42420000 0.73151900 7.50000000 
42.65660000 9.30075000 7.50000000 
43.35050000 8.06413000 7.50000000 
42.62650000 6.84493000 7.50000000 
43.32030000 5.60831000 7.50000000 
42.59630000 4.38912000 7.50000000 
43.29010000 3.15250000 7.50000000 
42.56610000 1.93330000 7.50000000 
43.26000000 0.69668500 7.50000000 
44.76830000 8.04671000 7.50000000 
44.73820000 5.59090000 7.50000000 
45.43200000 4.35428000 7.50000000 
44.70800000 3.13508000 7.50000000 
45.40190000 1.89847000 7.50000000 
44.67780000 0.67926800 7.50000000 
45.49240000 9.26591000 7.50000000 
45.46220000 6.81010000 7.50000000 
46.91020000 9.24849000 7.50000000 
47.60410000 8.01188000 7.50000000 
46.88010000 6.79268000 7.50000000 
47.57390000 5.55606000 7.50000000 
46.84990000 4.33686000 7.50000000 
47.54370000 3.10025000 7.50000000 
46.81970000 1.88105000 7.50000000 
47.51360000 0.64443400 7.50000000 
49.74600000 9.21366000 7.50000000 
49.02190000 7.99446000 7.50000000 
49.71580000 6.75784000 7.50000000 
48.99180000 5.53865000 7.50000000 
49.68560000 4.30203000 7.50000000 
48.96160000 3.08283000 7.50000000 
49.65550000 1.84622000 7.50000000 
48.93140000 0.62701700 7.50000000 
51.16380000 9.19624000 7.50000000 
51.85770000 7.95963000 7.50000000 
51.13370000 6.74043000 7.50000000 
51.82750000 5.50381000 7.50000000 
51.10350000 4.28461000 7.50000000 
51.79730000 3.04800000 7.50000000 
51.07330000 1.82880000 7.50000000 
51.76720000 0.59218200 7.50000000 
53.99960000 9.16141000 7.50000000 
53.27550000 7.94221000 7.50000000 
53.96940000 6.70559000 7.50000000 
53.24540000 5.48639000 7.50000000 
53.93920000 4.24978000 7.50000000 
53.21520000 3.03058000 7.50000000 
53.90900000 1.79396000 7.50000000 
53.18500000 0.57476500 7.50000000 
55.41740000 9.14399000 7.50000000 
56.11130000 7.90738000 7.50000000 
55.38720000 6.68818000 7.50000000 
56.08110000 5.45156000 7.50000000 
55.35710000 4.23236000 7.50000000 
56.05090000 2.99575000 7.50000000 
55.32690000 1.77655000 7.50000000 
56.02080000 0.53993100 7.50000000 
58.25310000 9.10916000 7.50000000 
57.52910000 7.88996000 7.50000000 
58.22300000 6.65334000 7.50000000 
57.49900000 5.43414000 7.50000000 
58.19280000 4.19753000 7.50000000 
57.46880000 2.97833000 7.50000000 
58.16260000 1.74171000 7.50000000 
57.43860000 0.52251400 7.50000000 
59.67100000 9.09174000 7.50000000 
60.36490000 7.85512000 7.50000000 
59.64080000 6.63592000 7.50000000 
60.33470000 5.39931000 7.50000000 
59.61070000 4.18011000 7.50000000 
60.30450000 2.94349000 7.50000000 
59.58050000 1.72430000 7.50000000 
60.27440000 0.48768000 7.50000000 
62.50670000 9.05691000 7.50000000 
61.78270000 7.83771000 7.50000000 
62.47660000 6.60109000 7.50000000 
61.75260000 5.38189000 7.50000000 
62.44640000 4.14528000 7.50000000 
61.72240000 2.92608000 7.50000000 
62.41620000 1.68946000 7.50000000 
61.69220000 0.47026200 7.50000000 
63.92460000 9.03949000 7.50000000 
64.61850000 7.80287000 7.50000000 
63.89440000 6.58367000 7.50000000 
64.58830000 5.34706000 7.50000000 
63.86430000 4.12786000 7.50000000 
64.55810000 2.89124000 7.50000000 
63.83410000 1.67204000 7.50000000 
64.52800000 0.43542800 7.50000000 
66.76030000 9.00465000 7.50000000 
66.03630000 7.78546000 7.50000000 
66.73020000 6.54884000 7.50000000 
66.00620000 5.32964000 7.50000000 
66.70000000 4.09302000 7.50000000 
65.97600000 2.87383000 7.50000000 
66.66980000 1.63721000 7.50000000 
65.94580000 0.41801100 7.50000000 
68.17820000 8.98724000 7.50000000 
68.87210000 7.75062000 7.50000000 
68.14800000 6.53142000 7.50000000 
68.84190000 5.29481000 7.50000000 
68.11790000 4.07561000 7.50000000 
68.81170000 2.83899000 7.50000000 
68.08770000 1.61979000 7.50000000 
68.78160000 0.38317700 7.50000000 
71.01390000 8.95240000 7.50000000 
70.28990000 7.73320000 7.50000000 
70.98380000 6.49659000 7.50000000 
70.25980000 5.27739000 7.50000000 
70.95360000 4.04077000 7.50000000 
70.22960000 2.82157000 7.50000000 
70.92340000 1.58496000 7.50000000 
70.19940000 0.36576000 7.50000000 
72.43180000 8.93499000 7.50000000 
72.40160000 6.47917000 7.50000000 
72.37150000 4.02336000 7.50000000 
72.34130000 1.56754000 7.50000000 
73.12560000 7.69837000 7.50000000 
73.09550000 5.24255000 7.50000000 
73.06530000 2.78674000 7.50000000 
73.03510000 0.33092500 7.50000000 
75.26750000 8.90015000 7.50000000 
74.54350000 7.68095000 7.50000000 
75.23740000 6.44434000 7.50000000 
74.51330000 5.22514000 7.50000000 
75.20720000 3.98852000 7.50000000 
74.48320000 2.76932000 7.50000000 
75.17700000 1.53271000 7.50000000 
74.45300000 0.31350800 7.50000000 
76.68540000 8.88273000 7.50000000 
77.37920000 7.64612000 7.50000000 
76.65520000 6.42692000 7.50000000 
77.34910000 5.19030000 7.50000000 
76.62510000 3.97110000 7.50000000 
77.31890000 2.73449000 7.50000000 
76.59490000 1.51529000 7.50000000 
77.28870000 0.27867400 7.50000000 
79.52110000 8.84790000 7.50000000 
78.79710000 7.62870000 7.50000000 
79.49100000 6.39209000 7.50000000 
78.76690000 5.17289000 7.50000000 
79.46080000 3.93627000 7.50000000 
78.73680000 2.71707000 7.50000000 
79.43060000 1.48046000 7.50000000 
78.70660000 0.26125700 7.50000000 
80.93900000 8.83048000 7.50000000 
81.63280000 7.59387000 7.50000000 
80.90880000 6.37467000 7.50000000 
81.60270000 5.13805000 7.50000000 
80.87870000 3.91885000 7.50000000 
81.57250000 2.68224000 7.50000000 
80.84850000 1.46304000 7.50000000 
81.54230000 0.22642300 7.50000000 
83.77470000 8.79565000 7.50000000 
83.05070000 7.57645000 7.50000000 
83.74460000 6.33983000 7.50000000 
83.02050000 5.12063000 7.50000000 
83.71440000 3.88402000 7.50000000 
82.99040000 2.66482000 7.50000000 
83.68420000 1.42820000 7.50000000 
82.96020000 0.20900500 7.50000000 
85.19260000 8.77823000 7.50000000 
85.88640000 7.54162000 7.50000000 
85.16240000 6.32242000 7.50000000 
85.85630000 5.08580000 7.50000000 
85.13230000 3.86660000 7.50000000 
85.82610000 2.62999000 7.50000000 
85.10210000 1.41079000 7.50000000 
85.79590000 0.17417100 7.50000000 
88.02830000 8.74340000 7.50000000 
87.30430000 7.52420000 7.50000000 
87.99810000 6.28758000 7.50000000 
87.27410000 5.06838000 7.50000000 
87.96800000 3.83177000 7.50000000 
87.24400000 2.61257000 7.50000000 
87.93780000 1.37595000 7.50000000 
87.21380000 0.15675400 7.50000000 
89.44620000 8.72598000 7.50000000 
90.14000000 7.48936000 7.50000000 
89.41600000 6.27017000 7.50000000 
90.10990000 5.03355000 7.50000000 
89.38580000 3.81435000 7.50000000 
90.07970000 2.57773000 7.50000000 
89.35570000 1.35854000 7.50000000 
90.04950000 0.12192000 7.50000000 
92.28190000 8.69115000 7.50000000 
91.55790000 7.47195000 7.50000000 
92.25170000 6.23533000 7.50000000 
91.52770000 5.01613000 7.50000000 
92.22160000 3.77952000 7.50000000 
91.49760000 2.56032000 7.50000000 
92.19140000 1.32370000 7.50000000 
91.46740000 0.10450300 7.50000000 
93.69980000 8.67373000 7.50000000 
94.39360000 7.43711000 7.50000000 
93.66960000 6.21791000 7.50000000 
94.36350000 4.98130000 7.50000000 
93.63940000 3.76210000 7.50000000 
94.33330000 2.52548000 7.50000000 
93.60930000 1.30628000 7.50000000 
94.30310000 0.06966850 7.50000000 
96.53550000 8.63889000 7.50000000 
95.81150000 7.41970000 7.50000000 
96.50530000 6.18308000 7.50000000 
95.78130000 4.96388000 7.50000000 
96.47520000 3.72726000 7.50000000 
95.75120000 2.50807000 7.50000000 
96.44500000 1.27145000 7.50000000 
95.72100000 0.05225140 7.50000000 
97.95340000 8.62148000 7.50000000 
98.64720000 7.38486000 7.50000000 
97.92320000 6.16566000 7.50000000 
98.61710000 4.92905000 7.50000000 
97.89300000 3.70985000 7.50000000 
98.58690000 2.47323000 7.50000000 
97.86290000 1.25403000 7.50000000 
98.55670000 0.01741710 7.50000000 
7.24016000 12.19200000 7.50000000 
6.51615000 10.97280000 7.50000000 
7.21000000 9.73617000 7.50000000 
8.68820000 14.63040000 7.50000000 
8.65803000 12.17460000 7.50000000 
8.62786000 9.71876000 7.50000000 
9.41221000 15.84960000 7.50000000 
9.38204000 13.39380000 7.50000000 
9.35188000 10.93800000 7.50000000 
10.86020000 18.28800000 7.50000000 
11.55410000 17.05140000 7.50000000 
10.83010000 15.83220000 7.50000000 
11.52390000 14.59560000 7.50000000 
10.79990000 13.37640000 7.50000000 
11.49380000 12.13970000 7.50000000 
10.76970000 10.92050000 7.50000000 
11.46360000 9.68392000 7.50000000 
13.69600000 18.25310000 7.50000000 
12.97200000 17.03390000 7.50000000 
13.66580000 15.79730000 7.50000000 
12.94180000 14.57810000 7.50000000 
13.63560000 13.34150000 7.50000000 
12.91160000 12.12230000 7.50000000 
13.60550000 10.88570000 7.50000000 
12.88150000 9.66650000 7.50000000 
15.11380000 18.23570000 7.50000000 
15.80770000 16.99910000 7.50000000 
15.08370000 15.77990000 7.50000000 
15.77750000 14.54330000 7.50000000 
15.05350000 13.32410000 7.50000000 
15.74740000 12.08750000 7.50000000 
15.02330000 10.86830000 7.50000000 
15.71720000 9.63167000 7.50000000 
17.94960000 18.20090000 7.50000000 
17.22560000 16.98170000 7.50000000 
17.91940000 15.74510000 7.50000000 
17.19540000 14.52590000 7.50000000 
17.88920000 13.28930000 7.50000000 
17.16520000 12.07010000 7.50000000 
17.85910000 10.83350000 7.50000000 
19.36740000 18.18350000 7.50000000 
20.06130000 16.94690000 7.50000000 
19.33730000 15.72770000 7.50000000 
20.03110000 14.49100000 7.50000000 
19.30710000 13.27180000 7.50000000 
20.00100000 12.03520000 7.50000000 
19.27690000 10.81600000 7.50000000 
22.20320000 18.14860000 7.50000000 
21.47920000 16.92940000 7.50000000 
22.17300000 15.69280000 7.50000000 
21.44900000 14.47360000 7.50000000 
22.14280000 13.23700000 7.50000000 
21.41880000 12.01780000 7.50000000 
22.11270000 10.78120000 7.50000000 
23.62100000 18.13120000 7.50000000 
24.31490000 16.89460000 7.50000000 
23.59090000 15.67540000 7.50000000 
24.28470000 14.43880000 7.50000000 
23.56070000 13.21960000 7.50000000 
24.25450000 11.98300000 7.50000000 
23.53050000 10.76380000 7.50000000 
26.45680000 18.09640000 7.50000000 
25.73270000 16.87720000 7.50000000 
26.42660000 15.64060000 7.50000000 
25.70260000 14.42140000 7.50000000 
26.39640000 13.18480000 7.50000000 
25.67240000 11.96560000 7.50000000 
26.36630000 10.72890000 7.50000000 
27.87460000 18.07900000 7.50000000 
28.56850000 16.84240000 7.50000000 
27.84450000 15.62320000 7.50000000 
28.53830000 14.38650000 7.50000000 
27.81430000 13.16730000 7.50000000 
28.50810000 11.93070000 7.50000000 
27.78410000 10.71150000 7.50000000 
30.71040000 18.04410000 7.50000000 
29.98630000 16.82490000 7.50000000 
30.68020000 15.58830000 7.50000000 
29.95620000 14.36910000 7.50000000 
30.65000000 13.13250000 7.50000000 
29.92600000 11.91330000 7.50000000 
30.61990000 10.67670000 7.50000000 
32.12820000 18.02670000 7.50000000 
32.82210000 16.79010000 7.50000000 
32.09810000 15.57090000 7.50000000 
32.79190000 14.33430000 7.50000000 
32.06790000 13.11510000 7.50000000 
32.76170000 11.87850000 7.50000000 
32.03770000 10.65930000 7.50000000 
34.27010000 19.22850000 7.50000000 
34.96400000 17.99190000 7.50000000 
34.23990000 16.77270000 7.50000000 
34.93380000 15.53610000 7.50000000 
34.20980000 14.31690000 7.50000000 
34.90360000 13.08030000 7.50000000 
34.17960000 11.86110000 7.50000000 
34.87350000 10.62440000 7.50000000 
36.35170000 15.51870000 7.50000000 
36.32150000 13.06280000 7.50000000 
36.29130000 10.60700000 7.50000000 
37.10580000 19.19370000 7.50000000 
36.38180000 17.97450000 7.50000000 
37.07570000 16.73790000 7.50000000 
37.04550000 14.28200000 7.50000000 
37.01530000 11.82620000 7.50000000 
38.52370000 19.17630000 7.50000000 
39.21760000 17.93960000 7.50000000 
38.49350000 16.72040000 7.50000000 
39.18740000 15.48380000 7.50000000 
38.46340000 14.26460000 7.50000000 
39.15720000 13.02800000 7.50000000 
38.43320000 11.80880000 7.50000000 
39.12700000 10.57220000 7.50000000 
41.35940000 19.14140000 7.50000000 
40.63540000 17.92220000 7.50000000 
41.32930000 16.68560000 7.50000000 
40.60520000 15.46640000 7.50000000 
41.29910000 14.22980000 7.50000000 
40.57510000 13.01060000 7.50000000 
41.26890000 11.77400000 7.50000000 
40.54490000 10.55480000 7.50000000 
42.77730000 19.12400000 7.50000000 
43.47110000 17.88740000 7.50000000 
42.74710000 16.66820000 7.50000000 
43.44100000 15.43160000 7.50000000 
42.71700000 14.21240000 7.50000000 
43.41080000 12.97580000 7.50000000 
42.68680000 11.75660000 7.50000000 
43.38060000 10.51990000 7.50000000 
44.88900000 17.87000000 7.50000000 
44.85880000 15.41420000 7.50000000 
44.82870000 12.95830000 7.50000000 
44.79850000 10.50250000 7.50000000 
45.61300000 19.08920000 7.50000000 
45.58290000 16.63340000 7.50000000 
45.55270000 14.17750000 7.50000000 
45.52250000 11.72170000 7.50000000 
47.03090000 19.07180000 7.50000000 
47.72470000 17.83510000 7.50000000 
47.00070000 16.61590000 7.50000000 
47.69460000 15.37930000 7.50000000 
46.97060000 14.16010000 7.50000000 
47.66440000 12.92350000 7.50000000 
46.94040000 11.70430000 7.50000000 
47.63420000 10.46770000 7.50000000 
49.86660000 19.03690000 7.50000000 
49.14260000 17.81770000 7.50000000 
49.83650000 16.58110000 7.50000000 
49.11240000 15.36190000 7.50000000 
49.80630000 14.12530000 7.50000000 
49.08230000 12.90610000 7.50000000 
49.77610000 11.66950000 7.50000000 
49.05210000 10.45030000 7.50000000 
51.28450000 19.01950000 7.50000000 
51.97830000 17.78290000 7.50000000 
51.25430000 16.56370000 7.50000000 
51.94820000 15.32710000 7.50000000 
51.22420000 14.10790000 7.50000000 
51.91800000 12.87130000 7.50000000 
51.19400000 11.65210000 7.50000000 
51.88780000 10.41540000 7.50000000 
54.12020000 18.98470000 7.50000000 
53.39620000 17.76550000 7.50000000 
54.09010000 16.52890000 7.50000000 
53.36600000 15.30970000 7.50000000 
54.05990000 14.07300000 7.50000000 
53.33590000 12.85380000 7.50000000 
54.02970000 11.61720000 7.50000000 
53.30570000 10.39800000 7.50000000 
55.53810000 18.96720000 7.50000000 
56.23190000 17.73060000 7.50000000 
55.50790000 16.51140000 7.50000000 
56.20180000 15.27480000 7.50000000 
55.47780000 14.05560000 7.50000000 
56.17160000 12.81900000 7.50000000 
55.44760000 11.59980000 7.50000000 
56.14140000 10.36320000 7.50000000 
58.37380000 18.93240000 7.50000000 
57.64980000 17.71320000 7.50000000 
58.34360000 16.47660000 7.50000000 
57.61960000 15.25740000 7.50000000 
58.31350000 14.02080000 7.50000000 
57.58950000 12.80160000 7.50000000 
58.28330000 11.56500000 7.50000000 
57.55930000 10.34580000 7.50000000 
59.79170000 18.91500000 7.50000000 
60.48550000 17.67840000 7.50000000 
59.76150000 16.45920000 7.50000000 
60.45540000 15.22260000 7.50000000 
59.73130000 14.00340000 7.50000000 
60.42520000 12.76680000 7.50000000 
59.70120000 11.54760000 7.50000000 
60.39500000 10.31090000 7.50000000 
62.62740000 18.88020000 7.50000000 
61.90340000 17.66100000 7.50000000 
62.59720000 16.42430000 7.50000000 
61.87320000 15.20520000 7.50000000 
62.56710000 13.96850000 7.50000000 
61.84310000 12.74930000 7.50000000 
62.53690000 11.51270000 7.50000000 
61.81290000 10.29350000 7.50000000 
64.04530000 18.86270000 7.50000000 
64.73910000 17.62610000 7.50000000 
64.01510000 16.40690000 7.50000000 
64.70900000 15.17030000 7.50000000 
63.98490000 13.95110000 7.50000000 
64.67880000 12.71450000 7.50000000 
63.95480000 11.49530000 7.50000000 
64.64860000 10.25870000 7.50000000 
66.88100000 18.82790000 7.50000000 
66.15700000 17.60870000 7.50000000 
66.85080000 16.37210000 7.50000000 
66.12680000 15.15290000 7.50000000 
66.82070000 13.91630000 7.50000000 
66.09670000 12.69710000 7.50000000 
66.79050000 11.46050000 7.50000000 
66.06650000 10.24130000 7.50000000 
68.29890000 18.81050000 7.50000000 
68.99270000 17.57390000 7.50000000 
68.26870000 16.35470000 7.50000000 
68.96260000 15.11810000 7.50000000 
68.23850000 13.89890000 7.50000000 
68.93240000 12.66230000 7.50000000 
68.20840000 11.44310000 7.50000000 
68.90220000 10.20640000 7.50000000 
71.13460000 18.77570000 7.50000000 
70.41060000 17.55650000 7.50000000 
71.10440000 16.31980000 7.50000000 
70.38040000 15.10060000 7.50000000 
71.07430000 13.86400000 7.50000000 
70.35030000 12.64480000 7.50000000 
71.04410000 11.40820000 7.50000000 
70.32010000 10.18900000 7.50000000 
72.55250000 18.75820000 7.50000000 
72.52230000 16.30240000 7.50000000 
72.49210000 13.84660000 7.50000000 
72.46200000 11.39080000 7.50000000 
73.24630000 17.52160000 7.50000000 
73.21620000 15.06580000 7.50000000 
73.18600000 12.61000000 7.50000000 
73.15580000 10.15420000 7.50000000 
75.38820000 18.72340000 7.50000000 
74.66420000 17.50420000 7.50000000 
75.35800000 16.26760000 7.50000000 
74.63400000 15.04840000 7.50000000 
75.32790000 13.81180000 7.50000000 
74.60380000 12.59260000 7.50000000 
75.29770000 11.35600000 7.50000000 
74.57370000 10.13680000 7.50000000 
76.80610000 18.70600000 7.50000000 
77.49990000 17.46940000 7.50000000 
76.77590000 16.25020000 7.50000000 
77.46970000 15.01360000 7.50000000 
76.74570000 13.79440000 7.50000000 
77.43960000 12.55770000 7.50000000 
76.71560000 11.33850000 7.50000000 
77.40940000 10.10190000 7.50000000 
79.64180000 18.67120000 7.50000000 
78.91780000 17.45200000 7.50000000 
79.61160000 16.21530000 7.50000000 
78.88760000 14.99610000 7.50000000 
79.58150000 13.75950000 7.50000000 
78.85740000 12.54030000 7.50000000 
79.55130000 11.30370000 7.50000000 
78.82730000 10.08450000 7.50000000 
81.05970000 18.65370000 7.50000000 
81.75350000 17.41710000 7.50000000 
81.02950000 16.19790000 7.50000000 
81.72330000 14.96130000 7.50000000 
80.99930000 13.74210000 7.50000000 
81.69320000 12.50550000 7.50000000 
80.96920000 11.28630000 7.50000000 
81.66300000 10.04970000 7.50000000 
83.89540000 18.61890000 7.50000000 
83.17140000 17.39970000 7.50000000 
83.86520000 16.16310000 7.50000000 
83.14120000 14.94390000 7.50000000 
83.83510000 13.70730000 7.50000000 
83.11100000 12.48810000 7.50000000 
83.80490000 11.25150000 7.50000000 
83.08090000 10.03230000 7.50000000 
85.31330000 18.60150000 7.50000000 
86.00710000 17.36490000 7.50000000 
85.28310000 16.14570000 7.50000000 
85.97690000 14.90910000 7.50000000 
85.25290000 13.68990000 7.50000000 
85.94680000 12.45320000 7.50000000 
85.22280000 11.23400000 7.50000000 
85.91660000 9.99743000 7.50000000 
88.14900000 18.56670000 7.50000000 
87.42500000 17.34750000 7.50000000 
88.11880000 16.11080000 7.50000000 
87.39480000 14.89160000 7.50000000 
88.08870000 13.65500000 7.50000000 
87.36460000 12.43580000 7.50000000 
88.05850000 11.19920000 7.50000000 
87.33450000 9.98001000 7.50000000 
89.56690000 18.54920000 7.50000000 
90.26070000 17.31260000 7.50000000 
89.53670000 16.09340000 7.50000000 
90.23050000 14.85680000 7.50000000 
89.50650000 13.63760000 7.50000000 
90.20040000 12.40100000 7.50000000 
89.47630000 11.18180000 7.50000000 
90.17020000 9.94518000 7.50000000 
92.40260000 18.51440000 7.50000000 
91.67860000 17.29520000 7.50000000 
92.37240000 16.05860000 7.50000000 
91.64840000 14.83940000 7.50000000 
92.34220000 13.60280000 7.50000000 
91.61820000 12.38360000 7.50000000 
92.31210000 11.14700000 7.50000000 
91.58810000 9.92776000 7.50000000 
93.82040000 18.49700000 7.50000000 
94.51430000 17.26040000 7.50000000 
93.79030000 16.04120000 7.50000000 
94.48410000 14.80460000 7.50000000 
93.76010000 13.58540000 7.50000000 
94.45400000 12.34870000 7.50000000 
93.72990000 11.12950000 7.50000000 
94.42380000 9.89293000 7.50000000 
96.65620000 18.46220000 7.50000000 
95.93220000 17.24300000 7.50000000 
96.62600000 16.00630000 7.50000000 
95.90200000 14.78710000 7.50000000 
96.59580000 13.55050000 7.50000000 
95.87180000 12.33130000 7.50000000 
96.56570000 11.09470000 7.50000000 
95.84170000 9.87551000 7.50000000 
98.07400000 18.44470000 7.50000000 
98.76790000 17.20810000 7.50000000 
98.04390000 15.98890000 7.50000000 
98.73770000 14.75230000 7.50000000 
98.01370000 13.53310000 7.50000000 
98.70760000 12.29650000 7.50000000 
97.98350000 11.07730000 7.50000000 
98.67740000 9.84068000 7.50000000 
11.58430000 19.50720000 7.50000000 
13.75630000 23.16480000 7.50000000 
13.03230000 21.94560000 7.50000000 
13.72610000 20.70900000 7.50000000 
13.00210000 19.48980000 7.50000000 
15.92840000 26.82240000 7.50000000 
15.20430000 25.60320000 7.50000000 
15.89820000 24.36660000 7.50000000 
15.17420000 23.14740000 7.50000000 
15.86800000 21.91070000 7.50000000 
15.14400000 20.69150000 7.50000000 
15.83790000 19.45490000 7.50000000 
18.07020000 28.02420000 7.50000000 
17.34620000 26.80500000 7.50000000 
18.04010000 25.56830000 7.50000000 
17.31610000 24.34910000 7.50000000 
18.00990000 23.11250000 7.50000000 
17.28590000 21.89330000 7.50000000 
17.97970000 20.65670000 7.50000000 
17.25570000 19.43750000 7.50000000 
19.48810000 28.00670000 7.50000000 
20.18200000 26.77010000 7.50000000 
19.45790000 25.55090000 7.50000000 
20.15180000 24.31430000 7.50000000 
19.42780000 23.09510000 7.50000000 
20.12160000 21.85850000 7.50000000 
19.39760000 20.63930000 7.50000000 
20.09150000 19.40270000 7.50000000 
22.32380000 27.97190000 7.50000000 
21.59980000 26.75270000 7.50000000 
22.29370000 25.51610000 7.50000000 
21.56970000 24.29690000 7.50000000 
22.26350000 23.06030000 7.50000000 
21.53950000 21.84110000 7.50000000 
22.23330000 20.60450000 7.50000000 
21.50930000 19.38530000 7.50000000 
23.74170000 27.95450000 7.50000000 
24.43560000 26.71790000 7.50000000 
23.71150000 25.49870000 7.50000000 
24.40540000 24.26210000 7.50000000 
23.68140000 23.04290000 7.50000000 
24.37520000 21.80620000 7.50000000 
23.65120000 20.58700000 7.50000000 
24.34500000 19.35040000 7.50000000 
26.57740000 27.91970000 7.50000000 
25.85340000 26.70050000 7.50000000 
26.54730000 25.46380000 7.50000000 
25.82320000 24.24460000 7.50000000 
26.51710000 23.00800000 7.50000000 
25.79310000 21.78880000 7.50000000 
26.48690000 20.55220000 7.50000000 
25.76290000 19.33300000 7.50000000 
27.99530000 27.90220000 7.50000000 
28.68910000 26.66560000 7.50000000 
27.96510000 25.44640000 7.50000000 
28.65900000 24.20980000 7.50000000 
27.93500000 22.99060000 7.50000000 
28.62880000 21.75400000 7.50000000 
27.90480000 20.53480000 7.50000000 
28.59860000 19.29820000 7.50000000 
30.83100000 27.86740000 7.50000000 
30.10700000 26.64820000 7.50000000 
30.80090000 25.41160000 7.50000000 
30.07680000 24.19240000 7.50000000 
30.77070000 22.95580000 7.50000000 
30.04670000 21.73660000 7.50000000 
30.74050000 20.50000000 7.50000000 
30.01650000 19.28080000 7.50000000 
32.24890000 27.85000000 7.50000000 
32.94270000 26.61340000 7.50000000 
32.21870000 25.39420000 7.50000000 
32.91260000 24.15760000 7.50000000 
32.18860000 22.93840000 7.50000000 
32.88240000 21.70170000 7.50000000 
32.15840000 20.48250000 7.50000000 
32.85220000 19.24590000 7.50000000 
35.08460000 27.81510000 7.50000000 
34.36060000 26.59600000 7.50000000 
35.05450000 25.35930000 7.50000000 
34.33040000 24.14010000 7.50000000 
35.02430000 22.90350000 7.50000000 
34.30030000 21.68430000 7.50000000 
34.99410000 20.44770000 7.50000000 
36.50250000 27.79770000 7.50000000 
37.19630000 26.56110000 7.50000000 
36.47230000 25.34190000 7.50000000 
37.16620000 24.10530000 7.50000000 
36.44220000 22.88610000 7.50000000 
37.13600000 21.64950000 7.50000000 
36.41200000 20.43030000 7.50000000 
39.33820000 27.76290000 7.50000000 
38.61420000 26.54370000 7.50000000 
39.30810000 25.30710000 7.50000000 
38.58400000 24.08790000 7.50000000 
39.27790000 22.85130000 7.50000000 
38.55390000 21.63210000 7.50000000 
39.24770000 20.39550000 7.50000000 
40.75610000 27.74550000 7.50000000 
41.44990000 26.50890000 7.50000000 
40.72590000 25.28970000 7.50000000 
41.41980000 24.05310000 7.50000000 
40.69580000 22.83390000 7.50000000 
41.38960000 21.59720000 7.50000000 
40.66560000 20.37800000 7.50000000 
43.59180000 27.71060000 7.50000000 
42.86780000 26.49140000 7.50000000 
43.56160000 25.25480000 7.50000000 
42.83760000 24.03560000 7.50000000 
43.53150000 22.79900000 7.50000000 
42.80750000 21.57980000 7.50000000 
43.50130000 20.34320000 7.50000000 
45.00970000 27.69320000 7.50000000 
44.97950000 25.23740000 7.50000000 
44.94930000 22.78160000 7.50000000 
44.91920000 20.32580000 7.50000000 
45.70350000 26.45660000 7.50000000 
45.67340000 24.00080000 7.50000000 
45.64320000 21.54500000 7.50000000 
47.84540000 27.65840000 7.50000000 
47.12140000 26.43920000 7.50000000 
47.81520000 25.20260000 7.50000000 
47.09120000 23.98340000 7.50000000 
47.78510000 22.74680000 7.50000000 
47.06110000 21.52760000 7.50000000 
47.75490000 20.29100000 7.50000000 
49.26330000 27.64100000 7.50000000 
49.95710000 26.40440000 7.50000000 
49.23310000 25.18520000 7.50000000 
49.92700000 23.94850000 7.50000000 
49.20290000 22.72930000 7.50000000 
49.89680000 21.49270000 7.50000000 
49.17280000 20.27350000 7.50000000 
51.40520000 28.84280000 7.50000000 
52.09900000 27.60610000 7.50000000 
51.37500000 26.38690000 7.50000000 
52.06880000 25.15030000 7.50000000 
51.34480000 23.93110000 7.50000000 
52.03870000 22.69450000 7.50000000 
51.31470000 21.47530000 7.50000000 
52.00850000 20.23870000 7.50000000 
54.24090000 28.80790000 7.50000000 
53.51690000 27.58870000 7.50000000 
54.21070000 26.35210000 7.50000000 
53.48670000 25.13290000 7.50000000 