file written by TR
1.000000
23.428747 0.000000 0.000000
11.714374 20.289890 0.000000
0.000000 0.000000 15.000000
Type1
364
Cartesian
0.772000 1.189000 3.000000
0.000000 0.000000 3.000000
3.090000 4.757000 3.000000
2.317000 3.567000 3.000000
2.961000 2.304000 3.000000
2.188000 1.115000 3.000000
5.407000 8.324000 3.000000
4.634000 7.135000 3.000000
5.278000 5.871000 3.000000
4.506000 4.682000 3.000000
5.149000 3.419000 3.000000
4.377000 2.230000 3.000000
5.020000 0.966000 3.000000
7.724000 11.892000 3.000000
6.951000 10.702000 3.000000
7.595000 9.439000 3.000000
6.823000 8.250000 3.000000
7.466000 6.986000 3.000000
6.694000 5.797000 3.000000
7.338000 4.534000 3.000000
6.565000 3.344000 3.000000
7.209000 2.081000 3.000000
6.436000 0.892000 3.000000
10.041000 15.459000 3.000000
9.269000 14.270001 3.000000
9.912000 13.006000 3.000000
9.140000 11.817000 3.000000
9.783000 10.554000 3.000000
9.011000 9.365000 3.000000
9.655000 8.101000 3.000000
8.882000 6.912000 3.000000
9.526000 5.648000 3.000000
8.754000 4.459000 3.000000
9.397000 3.196000 3.000000
8.625000 2.007000 3.000000
9.269000 0.743000 3.000000
12.358000 19.025999 3.000000
11.586001 17.837000 3.000000
12.229000 16.573999 3.000000
11.457000 15.385000 3.000000
12.101000 14.121000 3.000000
11.328000 12.932000 3.000000
11.972000 11.669000 3.000000
11.199000 10.479000 3.000000
11.843000 9.216000 3.000000
11.071000 8.027000 3.000000
11.714000 6.763000 3.000000
10.942000 5.574000 3.000000
11.586001 4.311000 3.000000
10.813000 3.122000 3.000000
11.457000 1.858000 3.000000
10.685000 0.669000 3.000000
14.546000 20.141001 3.000000
13.774000 18.952000 3.000000
14.418000 17.688999 3.000000
13.645001 16.499001 3.000000
14.289000 15.236000 3.000000
13.517000 14.047000 3.000000
14.160000 12.783000 3.000000
13.387999 11.594000 3.000000
14.032000 10.331000 3.000000
13.259000 9.142000 3.000000
13.903000 7.878000 3.000000
13.130000 6.689000 3.000000
13.774000 5.426000 3.000000
13.002000 4.236000 3.000000
13.645001 2.973000 3.000000
12.873000 1.784000 3.000000
13.517000 0.520000 3.000000
15.962000 20.066999 3.000000
16.606001 18.802999 3.000000
15.834000 17.614000 3.000000
16.476999 16.351000 3.000000
15.705000 15.162000 3.000000
16.349001 13.898000 3.000000
15.576000 12.709000 3.000000
16.219999 11.446000 3.000000
15.448000 10.256000 3.000000
16.091000 8.993000 3.000000
15.319000 7.804000 3.000000
15.962000 6.540000 3.000000
15.190000 5.351000 3.000000
15.834000 4.088000 3.000000
15.061000 2.899000 3.000000
15.705000 1.635000 3.000000
14.933000 0.446000 3.000000
18.794001 19.917999 3.000000
18.021999 18.729000 3.000000
18.666000 17.466000 3.000000
17.893000 16.277000 3.000000
18.537001 15.012999 3.000000
17.764999 13.824000 3.000000
18.408001 12.560000 3.000000
17.636000 11.371000 3.000000
18.280001 10.108000 3.000000
17.507000 8.919000 3.000000
18.150999 7.655000 3.000000
17.378000 6.466000 3.000000
18.021999 5.203000 3.000000
17.250000 4.013000 3.000000
17.893000 2.750000 3.000000
17.121000 1.561000 3.000000
17.764999 0.297000 3.000000
20.211001 19.844000 3.000000
20.854000 18.580000 3.000000
20.082001 17.391001 3.000000
20.725000 16.128000 3.000000
19.952999 14.939000 3.000000
20.597000 13.675000 3.000000
19.823999 12.486000 3.000000
20.468000 11.223000 3.000000
19.695999 10.033000 3.000000
20.339001 8.770001 3.000000
19.567000 7.581000 3.000000
20.211001 6.317000 3.000000
19.438000 5.128000 3.000000
20.082001 3.865000 3.000000
19.309000 2.676000 3.000000
19.952999 1.412000 3.000000
19.181000 0.223000 3.000000
23.042999 19.695000 3.000000
22.270000 18.506000 3.000000
22.914000 17.243000 3.000000
22.141001 16.054001 3.000000
22.785000 14.790000 3.000000
22.013001 13.601000 3.000000
22.656000 12.337000 3.000000
21.884001 11.148000 3.000000
22.528000 9.885000 3.000000
21.754999 8.696000 3.000000
22.399000 7.432000 3.000000
21.627001 6.243000 3.000000
22.270000 4.980000 3.000000
21.497999 3.790000 3.000000
22.141001 2.527000 3.000000
21.369000 1.338000 3.000000
22.013001 0.074000 3.000000
24.458748 19.621000 3.000000
25.101747 18.358000 3.000000
24.329746 17.167999 3.000000
24.973747 15.905000 3.000000
24.200747 14.716000 3.000000
24.844748 13.452000 3.000000
24.072746 12.262999 3.000000
24.715748 11.000000 3.000000
23.943747 9.810000 3.000000
24.587748 8.547000 3.000000
23.814747 7.358000 3.000000
24.458748 6.094000 3.000000
23.685747 4.905000 3.000000
24.329746 3.642000 3.000000
23.557747 2.453000 3.000000
27.290747 19.472000 3.000000
26.518747 18.283001 3.000000
27.161747 17.020000 3.000000
26.389748 15.831000 3.000000
27.032747 14.567000 3.000000
26.260748 13.378000 3.000000
26.904747 12.114000 3.000000
26.131748 10.925000 3.000000
26.775747 9.662000 3.000000
26.003748 8.473000 3.000000
26.646748 7.209000 3.000000
25.874748 6.020000 3.000000
28.706747 19.398001 3.000000
29.350746 18.135000 3.000000
28.577747 16.945000 3.000000
29.221748 15.682000 3.000000
28.448748 14.493000 3.000000
29.092747 13.229000 3.000000
28.320747 12.040000 3.000000
28.963747 10.777000 3.000000
28.191748 9.588000 3.000000
31.538746 19.249001 3.000000
30.766746 18.059999 3.000000
31.409748 16.797001 3.000000
30.637747 15.608000 3.000000
31.280746 14.344000 3.000000
30.508747 13.155000 3.000000
32.954746 19.174999 3.000000
33.598747 17.912001 3.000000
32.825749 16.722000 3.000000
0.000000 0.000000 6.400000
2.703000 2.601000 6.400000
2.060000 1.338000 6.400000
2.832000 0.149000 6.400000
4.634000 6.392000 6.400000
3.991000 5.128000 6.400000
4.763000 3.939000 6.400000
4.119000 2.676000 6.400000
4.892000 1.486000 6.400000
4.248000 0.223000 6.400000
6.565000 10.182000 6.400000
5.922000 8.919000 6.400000
6.694000 7.729000 6.400000
6.050000 6.466000 6.400000
6.823000 5.277000 6.400000
6.179000 4.013000 6.400000
6.951000 2.824000 6.400000
6.308000 1.561000 6.400000
7.080000 0.372000 6.400000
8.496000 13.973000 6.400000
7.852000 12.709000 6.400000
8.625000 11.520001 6.400000
7.981000 10.256000 6.400000
8.754000 9.067000 6.400000
8.110000 7.804000 6.400000
8.882000 6.615000 6.400000
8.239000 5.351000 6.400000
9.011000 4.162000 6.400000
8.367000 2.899000 6.400000
9.140000 1.709000 6.400000
8.496000 0.446000 6.400000
10.427000 17.763001 6.400000
9.783000 16.499001 6.400000
10.556000 15.310000 6.400000
9.912000 14.047000 6.400000
10.685000 12.858000 6.400000
10.041000 11.594000 6.400000
10.813000 10.405000 6.400000
10.170000 9.142000 6.400000
10.942000 7.952000 6.400000
10.298000 6.689000 6.400000
11.071000 5.500000 6.400000
10.427000 4.236000 6.400000
11.199000 3.047000 6.400000
10.556000 1.784000 6.400000
11.328000 0.595000 6.400000
12.487001 19.101000 6.400000
11.843000 17.837000 6.400000
12.615000 16.648001 6.400000
11.972000 15.385000 6.400000
12.744001 14.195000 6.400000
12.101000 12.932000 6.400000
12.873000 11.743000 6.400000
12.229000 10.479000 6.400000
13.002000 9.290000 6.400000
12.358000 8.027000 6.400000
13.130000 6.838000 6.400000
12.487001 5.574000 6.400000
13.259000 4.385000 6.400000
12.615000 3.122000 6.400000
13.387999 1.932000 6.400000
12.744001 0.669000 6.400000
13.903000 19.174999 6.400000
14.675000 17.986000 6.400000
14.032000 16.722000 6.400000
14.804000 15.533000 6.400000
14.160000 14.270001 6.400000
14.933000 13.081000 6.400000
14.289000 11.817000 6.400000
15.061000 10.628000 6.400000
14.418000 9.365000 6.400000
15.190000 8.175000 6.400000
14.546000 6.912000 6.400000
15.319000 5.723000 6.400000
14.675000 4.459000 6.400000
15.448000 3.270000 6.400000
14.804000 2.007000 6.400000
15.576000 0.818000 6.400000
16.735001 19.323999 6.400000
16.091000 18.059999 6.400000
16.864000 16.871000 6.400000
16.219999 15.608000 6.400000
16.992001 14.418000 6.400000
16.349001 13.155000 6.400000
17.121000 11.966000 6.400000
16.476999 10.702000 6.400000
17.250000 9.513000 6.400000
16.606001 8.250000 6.400000
17.378000 7.061000 6.400000
16.735001 5.797000 6.400000
17.507000 4.608000 6.400000
16.864000 3.344000 6.400000
17.636000 2.155000 6.400000
16.992001 0.892000 6.400000
18.150999 19.398001 6.400000
18.923000 18.209000 6.400000
18.280001 16.945000 6.400000
19.052000 15.756000 6.400000
18.408001 14.493000 6.400000
19.181000 13.304000 6.400000
18.537001 12.040000 6.400000
19.309000 10.851000 6.400000
18.666000 9.588000 6.400000
19.438000 8.398000 6.400000
18.794001 7.135000 6.400000
19.567000 5.946000 6.400000
18.923000 4.682000 6.400000
19.695999 3.493000 6.400000
19.052000 2.230000 6.400000
19.823999 1.041000 6.400000
20.983000 19.547001 6.400000
20.339001 18.283001 6.400000
21.111999 17.094000 6.400000
20.468000 15.831000 6.400000
21.240000 14.641000 6.400000
20.597000 13.378000 6.400000
21.369000 12.189000 6.400000
20.725000 10.925000 6.400000
21.497999 9.736000 6.400000
20.854000 8.473000 6.400000
21.627001 7.284000 6.400000
20.983000 6.020000 6.400000
21.754999 4.831000 6.400000
21.111999 3.567000 6.400000
21.884001 2.378000 6.400000
21.240000 1.115000 6.400000
22.399000 19.621000 6.400000
23.171000 18.431999 6.400000
22.528000 17.167999 6.400000
23.299999 15.979000 6.400000
22.656000 14.716000 6.400000
22.785000 12.262999 6.400000
22.914000 9.810000 6.400000
23.042999 7.358000 6.400000
23.171000 4.905000 6.400000
23.299999 2.453000 6.400000
23.428747 13.527000 6.400000
23.557747 11.074000 6.400000
23.685747 8.621000 6.400000
23.814747 6.169000 6.400000
23.943747 3.716000 6.400000
24.072746 1.263000 6.400000
25.230747 19.770000 6.400000
24.587748 18.506000 6.400000
25.359747 17.316999 6.400000
24.715748 16.054001 6.400000
25.488747 14.864000 6.400000
24.844748 13.601000 6.400000
25.616747 12.412000 6.400000
24.973747 11.148000 6.400000
25.745747 9.959000 6.400000
25.101747 8.696000 6.400000
25.874748 7.507000 6.400000
25.230747 6.243000 6.400000
26.003748 5.054000 6.400000
25.359747 3.790000 6.400000
26.646748 19.844000 6.400000
27.419746 18.655001 6.400000
26.775747 17.391001 6.400000
27.547747 16.202000 6.400000
26.904747 14.939000 6.400000
27.676746 13.750000 6.400000
27.032747 12.486000 6.400000
27.805748 11.297000 6.400000
27.161747 10.033000 6.400000
27.934748 8.844000 6.400000
27.290747 7.581000 6.400000
29.478748 19.993000 6.400000
28.835747 18.729000 6.400000
29.607746 17.540001 6.400000
28.963747 16.277000 6.400000
29.736748 15.087000 6.400000
29.092747 13.824000 6.400000
29.864746 12.635000 6.400000
29.221748 11.371000 6.400000
30.894747 20.066999 6.400000
31.667748 18.878000 6.400000
31.023747 17.614000 6.400000
31.795746 16.424999 6.400000
31.152748 15.162000 6.400000
33.726746 20.216000 6.400000
33.083748 18.952000 6.400000
