written by TR 
1.000000000 
108.481827000 0.000000000 0.000000000 
54.240913500 93.948018031 0.000000000 
0.000000000 0.000000000 18.400000000 
Type1 
7804
Cartesian 
0.72284200 1.21990000 7.50000000 
0.00000000 0.00000000 7.50000000 
2.89137000 4.87958000 7.50000000 
2.16852000 3.65969000 7.50000000 
2.86356000 2.42374000 7.50000000 
2.14072000 1.20384000 7.50000000 
5.05989000 8.53927000 7.50000000 
4.33705000 7.31937000 7.50000000 
5.03209000 6.08343000 7.50000000 
4.30925000 4.86353000 7.50000000 
5.00429000 3.62758000 7.50000000 
4.28145000 2.40769000 7.50000000 
4.97649000 1.17174000 7.50000000 
6.47777000 8.52322000 7.50000000 
7.17281000 7.28727000 7.50000000 
6.44997000 6.06738000 7.50000000 
7.14501000 4.83143000 7.50000000 
6.42217000 3.61153000 7.50000000 
7.11721000 2.37559000 7.50000000 
6.39437000 1.15569000 7.50000000 
8.59069000 7.27122000 7.50000000 
8.56289000 4.81538000 7.50000000 
8.53509000 2.35954000 7.50000000 
9.31353000 8.49112000 7.50000000 
9.28573000 6.03527000 7.50000000 
9.25793000 3.57943000 7.50000000 
9.23013000 1.12359000 7.50000000 
10.73140000 8.47506000 7.50000000 
11.42650000 7.23912000 7.50000000 
10.70360000 6.01922000 7.50000000 
11.39870000 4.78328000 7.50000000 
10.67580000 3.56338000 7.50000000 
11.37090000 2.32743000 7.50000000 
10.64800000 1.10754000 7.50000000 
13.56720000 8.44296000 7.50000000 
12.84430000 7.22307000 7.50000000 
13.53940000 5.98712000 7.50000000 
12.81650000 4.76722000 7.50000000 
13.51160000 3.53128000 7.50000000 
12.78870000 2.31138000 7.50000000 
13.48380000 1.07543000 7.50000000 
14.98510000 8.42691000 7.50000000 
15.68010000 7.19096000 7.50000000 
14.95730000 5.97107000 7.50000000 
15.65230000 4.73512000 7.50000000 
14.92950000 3.51523000 7.50000000 
15.62450000 2.27928000 7.50000000 
14.90170000 1.05938000 7.50000000 
17.82080000 8.39481000 7.50000000 
17.09800000 7.17491000 7.50000000 
17.79300000 5.93897000 7.50000000 
17.07020000 4.71907000 7.50000000 
17.76520000 3.48312000 7.50000000 
17.04240000 2.26323000 7.50000000 
17.73740000 1.02728000 7.50000000 
19.23870000 8.37876000 7.50000000 
19.93370000 7.14281000 7.50000000 
19.21090000 5.92291000 7.50000000 
19.90590000 4.68697000 7.50000000 
19.18310000 3.46707000 7.50000000 
19.87810000 2.23113000 7.50000000 
19.15530000 1.01123000 7.50000000 
22.07450000 8.34665000 7.50000000 
21.35160000 7.12676000 7.50000000 
22.04670000 5.89081000 7.50000000 
21.32380000 4.67092000 7.50000000 
22.01890000 3.43497000 7.50000000 
21.29600000 2.21507000 7.50000000 
21.99110000 0.97912700 7.50000000 
23.49230000 8.33060000 7.50000000 
24.18740000 7.09466000 7.50000000 
23.46450000 5.87476000 7.50000000 
24.15960000 4.63881000 7.50000000 
23.43670000 3.41892000 7.50000000 
24.13180000 2.18297000 7.50000000 
23.40890000 0.96307600 7.50000000 
26.32810000 8.29850000 7.50000000 
25.60530000 7.07861000 7.50000000 
26.30030000 5.84266000 7.50000000 
25.57750000 4.62276000 7.50000000 
26.27250000 3.38682000 7.50000000 
25.54970000 2.16692000 7.50000000 
26.24470000 0.93097300 7.50000000 
27.74600000 8.28245000 7.50000000 
28.44100000 7.04650000 7.50000000 
27.71820000 5.82661000 7.50000000 
28.41320000 4.59066000 7.50000000 
27.69040000 3.37076000 7.50000000 
28.38540000 2.13482000 7.50000000 
27.66260000 0.91492200 7.50000000 
30.58180000 8.25035000 7.50000000 
29.85890000 7.03045000 7.50000000 
30.55400000 5.79450000 7.50000000 
29.83110000 4.57461000 7.50000000 
30.52620000 3.33866000 7.50000000 
29.80330000 2.11877000 7.50000000 
30.49840000 0.88281900 7.50000000 
31.99960000 8.23430000 7.50000000 
32.69470000 6.99835000 7.50000000 
31.97180000 5.77845000 7.50000000 
32.66690000 4.54251000 7.50000000 
31.94400000 3.32261000 7.50000000 
32.63910000 2.08666000 7.50000000 
31.91620000 0.86676800 7.50000000 
34.83540000 8.20219000 7.50000000 
34.11260000 6.98230000 7.50000000 
34.80760000 5.74635000 7.50000000 
34.08480000 4.52646000 7.50000000 
34.77980000 3.29051000 7.50000000 
34.05700000 2.07061000 7.50000000 
34.75200000 0.83466500 7.50000000 
36.25330000 8.18614000 7.50000000 
36.94830000 6.95020000 7.50000000 
36.22550000 5.73030000 7.50000000 
36.92050000 4.49435000 7.50000000 
36.19770000 3.27446000 7.50000000 
36.89270000 2.03851000 7.50000000 
36.16990000 0.81861400 7.50000000 
38.39400000 9.38999000 7.50000000 
39.08900000 8.15404000 7.50000000 
38.36620000 6.93414000 7.50000000 
39.06120000 5.69820000 7.50000000 
38.33840000 4.47830000 7.50000000 
39.03340000 3.24235000 7.50000000 
38.31060000 2.02246000 7.50000000 
39.00560000 0.78651200 7.50000000 
41.22980000 9.35788000 7.50000000 
40.50690000 8.13799000 7.50000000 
41.20200000 6.90204000 7.50000000 
40.47910000 5.68215000 7.50000000 
41.17420000 4.44620000 7.50000000 
40.45130000 3.22630000 7.50000000 
41.14640000 1.99036000 7.50000000 
40.42350000 0.77046000 7.50000000 
42.64760000 9.34183000 7.50000000 
43.34270000 8.10589000 7.50000000 
42.61980000 6.88599000 7.50000000 
43.31490000 5.65004000 7.50000000 
42.59200000 4.43015000 7.50000000 
43.28710000 3.19420000 7.50000000 
42.56420000 1.97430000 7.50000000 
43.25930000 0.73835800 7.50000000 
44.76060000 8.08983000 7.50000000 
44.73280000 5.63399000 7.50000000 
44.70500000 3.17815000 7.50000000 
44.67720000 0.72230700 7.50000000 
45.48340000 9.30973000 7.50000000 
45.45560000 6.85389000 7.50000000 
45.42780000 4.39804000 7.50000000 
45.40000000 1.94220000 7.50000000 
46.90130000 9.29368000 7.50000000 
47.59630000 8.05773000 7.50000000 
46.87350000 6.83784000 7.50000000 
47.56850000 5.60189000 7.50000000 
46.84570000 4.38199000 7.50000000 
47.54070000 3.14605000 7.50000000 
46.81790000 1.92615000 7.50000000 
47.51290000 0.69020400 7.50000000 
49.73710000 9.26158000 7.50000000 
49.01420000 8.04168000 7.50000000 
49.70930000 6.80573000 7.50000000 
48.98640000 5.58584000 7.50000000 
49.68150000 4.34989000 7.50000000 
48.95860000 3.13000000 7.50000000 
49.65370000 1.89405000 7.50000000 
48.93080000 0.67415300 7.50000000 
51.15490000 9.24553000 7.50000000 
51.85000000 8.00958000 7.50000000 
51.12710000 6.78968000 7.50000000 
51.82220000 5.55374000 7.50000000 
51.09930000 4.33384000 7.50000000 
51.79440000 3.09789000 7.50000000 
51.07150000 1.87800000 7.50000000 
51.76660000 0.64205000 7.50000000 
53.99070000 9.21342000 7.50000000 
53.26790000 7.99353000 7.50000000 
53.96290000 6.75758000 7.50000000 
53.24010000 5.53768000 7.50000000 
53.93510000 4.30174000 7.50000000 
53.21230000 3.08184000 7.50000000 
53.90730000 1.84589000 7.50000000 
53.18450000 0.62599900 7.50000000 
55.40860000 9.19737000 7.50000000 
56.10360000 7.96142000 7.50000000 
55.38080000 6.74153000 7.50000000 
56.07580000 5.50558000 7.50000000 
55.35300000 4.28569000 7.50000000 
56.04800000 3.04974000 7.50000000 
55.32520000 1.82984000 7.50000000 
56.02020000 0.59389700 7.50000000 
58.24430000 9.16527000 7.50000000 
57.52150000 7.94537000 7.50000000 
58.21650000 6.70943000 7.50000000 
57.49370000 5.48953000 7.50000000 
58.18870000 4.25358000 7.50000000 
57.46590000 3.03369000 7.50000000 
58.16090000 1.79774000 7.50000000 
57.43810000 0.57784500 7.50000000 
59.66220000 9.14922000 7.50000000 
60.35730000 7.91327000 7.50000000 
59.63440000 6.69338000 7.50000000 
60.32950000 5.45743000 7.50000000 
59.60660000 4.23753000 7.50000000 
60.30170000 3.00159000 7.50000000 
59.57880000 1.78169000 7.50000000 
60.27390000 0.54574300 7.50000000 
62.49800000 9.11712000 7.50000000 
61.77510000 7.89722000 7.50000000 
62.47020000 6.66127000 7.50000000 
61.74730000 5.44138000 7.50000000 
62.44240000 4.20543000 7.50000000 
61.71950000 2.98553000 7.50000000 
62.41460000 1.74959000 7.50000000 
61.69170000 0.52969200 7.50000000 
63.91590000 9.10106000 7.50000000 
64.61090000 7.86512000 7.50000000 
63.88810000 6.64522000 7.50000000 
64.58310000 5.40927000 7.50000000 
63.86030000 4.18938000 7.50000000 
64.55530000 2.95343000 7.50000000 
63.83250000 1.73354000 7.50000000 
64.52750000 0.49758900 7.50000000 
66.75160000 9.06896000 7.50000000 
66.02880000 7.84907000 7.50000000 
66.72380000 6.61312000 7.50000000 
66.00100000 5.39322000 7.50000000 
66.69600000 4.15728000 7.50000000 
65.97320000 2.93738000 7.50000000 
66.66820000 1.70143000 7.50000000 
65.94540000 0.48153800 7.50000000 
68.16950000 9.05291000 7.50000000 
68.86460000 7.81696000 7.50000000 
68.14170000 6.59707000 7.50000000 
68.83680000 5.36112000 7.50000000 
68.11390000 4.14122000 7.50000000 
68.80900000 2.90528000 7.50000000 
68.08610000 1.68538000 7.50000000 
68.78110000 0.44943500 7.50000000 
71.00530000 9.02081000 7.50000000 
70.28240000 7.80091000 7.50000000 
70.97750000 6.56496000 7.50000000 
70.25460000 5.34507000 7.50000000 
70.94970000 4.10912000 7.50000000 
70.22680000 2.88923000 7.50000000 
70.92190000 1.65328000 7.50000000 
70.19900000 0.43338400 7.50000000 
72.42320000 9.00476000 7.50000000 
73.11820000 7.76881000 7.50000000 
72.39540000 6.54891000 7.50000000 
73.09040000 5.31297000 7.50000000 
72.36760000 4.09307000 7.50000000 
73.06260000 2.85712000 7.50000000 
72.33980000 1.63723000 7.50000000 
73.03480000 0.40128100 7.50000000 
75.25890000 8.97265000 7.50000000 
74.53610000 7.75276000 7.50000000 
75.23110000 6.51681000 7.50000000 
74.50830000 5.29692000 7.50000000 
75.20330000 4.06097000 7.50000000 
74.48050000 2.84107000 7.50000000 
75.17550000 1.60513000 7.50000000 
74.45270000 0.38523000 7.50000000 
76.67680000 8.95660000 7.50000000 
77.37180000 7.72066000 7.50000000 
76.64900000 6.50076000 7.50000000 
77.34400000 5.26481000 7.50000000 
76.62120000 4.04492000 7.50000000 
77.31620000 2.80897000 7.50000000 
76.59340000 1.58907000 7.50000000 
77.28840000 0.35312800 7.50000000 
79.51260000 8.92450000 7.50000000 
78.78970000 7.70460000 7.50000000 
79.48480000 6.46866000 7.50000000 
78.76190000 5.24876000 7.50000000 
79.45700000 4.01281000 7.50000000 
78.73410000 2.79292000 7.50000000 
79.42920000 1.55697000 7.50000000 
78.70630000 0.33707600 7.50000000 
80.93040000 8.90845000 7.50000000 
80.90260000 6.45261000 7.50000000 
80.87480000 3.99676000 7.50000000 
80.84700000 1.54092000 7.50000000 
81.62550000 7.67250000 7.50000000 
81.59770000 5.21666000 7.50000000 
81.56990000 2.76082000 7.50000000 
81.54210000 0.30497400 7.50000000 
83.76620000 8.87635000 7.50000000 
83.04340000 7.65645000 7.50000000 
83.73840000 6.42050000 7.50000000 
83.01560000 5.20061000 7.50000000 
83.71060000 3.96466000 7.50000000 
82.98780000 2.74477000 7.50000000 
83.68280000 1.50882000 7.50000000 
82.96000000 0.28892300 7.50000000 
85.18410000 8.86030000 7.50000000 
85.87910000 7.62435000 7.50000000 
85.15630000 6.40445000 7.50000000 
85.85130000 5.16851000 7.50000000 
85.12850000 3.94861000 7.50000000 
85.82350000 2.71266000 7.50000000 
85.10070000 1.49277000 7.50000000 
85.79570000 0.25682000 7.50000000 
88.01990000 8.82819000 7.50000000 
87.29700000 7.60830000 7.50000000 
87.99210000 6.37235000 7.50000000 
87.26920000 5.15245000 7.50000000 
87.96430000 3.91651000 7.50000000 
87.24140000 2.69661000 7.50000000 
87.93640000 1.46066000 7.50000000 
87.21360000 0.24076900 7.50000000 
89.43770000 8.81214000 7.50000000 
90.13280000 7.57619000 7.50000000 
89.40990000 6.35630000 7.50000000 
90.10500000 5.12035000 7.50000000 
89.38210000 3.90046000 7.50000000 
90.07720000 2.66451000 7.50000000 
89.35430000 1.44461000 7.50000000 
90.04940000 0.20866600 7.50000000 
92.27350000 8.78004000 7.50000000 
91.55070000 7.56014000 7.50000000 
92.24570000 6.32420000 7.50000000 
91.52290000 5.10430000 7.50000000 
92.21790000 3.86835000 7.50000000 
91.49510000 2.64846000 7.50000000 
92.19010000 1.41251000 7.50000000 
91.46730000 0.19261500 7.50000000 
93.69140000 8.76399000 7.50000000 
94.38640000 7.52804000 7.50000000 
93.66360000 6.30814000 7.50000000 
94.35860000 5.07220000 7.50000000 
93.63580000 3.85230000 7.50000000 
94.33080000 2.61636000 7.50000000 
93.60800000 1.39646000 7.50000000 
94.30300000 0.16051300 7.50000000 
96.52710000 8.73188000 7.50000000 
95.80430000 7.51199000 7.50000000 
96.49930000 6.27604000 7.50000000 
95.77650000 5.05615000 7.50000000 
96.47150000 3.82020000 7.50000000 
95.74870000 2.60030000 7.50000000 
96.44370000 1.36436000 7.50000000 
95.72090000 0.14446100 7.50000000 
97.94500000 8.71583000 7.50000000 
98.64010000 7.47989000 7.50000000 
97.91720000 6.25999000 7.50000000 
98.61230000 5.02404000 7.50000000 
97.88940000 3.80415000 7.50000000 
98.58450000 2.56820000 7.50000000 
97.86160000 1.34831000 7.50000000 
98.55670000 0.11235900 7.50000000 
100.78100000 8.68373000 7.50000000 
100.05800000 7.46384000 7.50000000 
100.75300000 6.22789000 7.50000000 
100.03000000 5.00799000 7.50000000 
100.72500000 3.77205000 7.50000000 
100.00200000 2.55215000 7.50000000 
100.69700000 1.31620000 7.50000000 
99.97450000 0.09630750 7.50000000 
102.19900000 8.66768000 7.50000000 
102.89400000 7.43173000 7.50000000 
102.17100000 6.21184000 7.50000000 
102.86600000 4.97589000 7.50000000 
102.14300000 3.75599000 7.50000000 
102.83800000 2.52005000 7.50000000 
102.11500000 1.30015000 7.50000000 
102.81000000 0.06420500 7.50000000 
105.03400000 8.63558000 7.50000000 
104.31200000 7.41568000 7.50000000 
105.00700000 6.17973000 7.50000000 
104.28400000 4.95984000 7.50000000 
104.97900000 3.72389000 7.50000000 
104.25600000 2.50400000 7.50000000 
104.95100000 1.26805000 7.50000000 
104.22800000 0.04815380 7.50000000 
106.45200000 8.61953000 7.50000000 
107.14700000 7.38358000 7.50000000 
106.42500000 6.16368000 7.50000000 
107.12000000 4.92774000 7.50000000 
106.39700000 3.70784000 7.50000000 
107.09200000 2.47189000 7.50000000 
106.36900000 1.25200000 7.50000000 
107.06400000 0.01605120 7.50000000 
7.22842000 12.19900000 7.50000000 
6.50557000 10.97910000 7.50000000 
7.20061000 9.74311000 7.50000000 
8.67410000 14.63870000 7.50000000 
8.64630000 12.18290000 7.50000000 
8.61849000 9.72706000 7.50000000 
9.39694000 15.85860000 7.50000000 
9.36914000 13.40280000 7.50000000 
9.34134000 10.94700000 7.50000000 
10.84260000 18.29840000 7.50000000 
11.53770000 17.06250000 7.50000000 
10.81480000 15.84260000 7.50000000 
11.50990000 14.60660000 7.50000000 
10.78700000 13.38680000 7.50000000 
11.48210000 12.15080000 7.50000000 
10.75920000 10.93090000 7.50000000 
11.45430000 9.69496000 7.50000000 
13.67840000 18.26630000 7.50000000 
12.95550000 17.04640000 7.50000000 
13.65060000 15.81050000 7.50000000 
12.92770000 14.59060000 7.50000000 
13.62280000 13.35460000 7.50000000 
12.89990000 12.13480000 7.50000000 
13.59500000 10.89880000 7.50000000 
12.87210000 9.67891000 7.50000000 
15.09630000 18.25030000 7.50000000 
15.79130000 17.01430000 7.50000000 
15.06850000 15.79440000 7.50000000 
15.76350000 14.55850000 7.50000000 
15.04070000 13.33860000 7.50000000 
15.73570000 12.10260000 7.50000000 
15.01290000 10.88280000 7.50000000 
15.70790000 9.64681000 7.50000000 
17.93200000 18.21820000 7.50000000 
17.20920000 16.99830000 7.50000000 
17.90420000 15.76230000 7.50000000 
17.18140000 14.54240000 7.50000000 
17.87640000 13.30650000 7.50000000 
17.15360000 12.08660000 7.50000000 
17.84860000 10.85070000 7.50000000 
17.12580000 9.63076000 7.50000000 
19.34990000 18.20210000 7.50000000 
20.04500000 16.96620000 7.50000000 
19.32210000 15.74630000 7.50000000 
20.01710000 14.51030000 7.50000000 
19.29430000 13.29040000 7.50000000 
19.98930000 12.05450000 7.50000000 
19.26650000 10.83460000 7.50000000 
19.96150000 9.59865000 7.50000000 
22.18570000 18.17000000 7.50000000 
21.46280000 16.95010000 7.50000000 
22.15790000 15.71420000 7.50000000 
21.43500000 14.49430000 7.50000000 
22.13010000 13.25830000 7.50000000 
21.40720000 12.03840000 7.50000000 
22.10230000 10.80250000 7.50000000 
21.37940000 9.58260000 7.50000000 
23.60360000 18.15400000 7.50000000 
24.29860000 16.91800000 7.50000000 
23.57580000 15.69810000 7.50000000 
24.27080000 14.46220000 7.50000000 
23.54800000 13.24230000 7.50000000 
24.24300000 12.00630000 7.50000000 
23.52020000 10.78640000 7.50000000 
24.21520000 9.55050000 7.50000000 
26.43930000 18.12190000 7.50000000 
25.71650000 16.90200000 7.50000000 
26.41150000 15.66600000 7.50000000 
25.68870000 14.44610000 7.50000000 
26.38370000 13.21020000 7.50000000 
25.66090000 11.99030000 7.50000000 
26.35590000 10.75430000 7.50000000 
25.63310000 9.53445000 7.50000000 
27.85720000 18.10580000 7.50000000 
28.55220000 16.86990000 7.50000000 
27.82940000 15.65000000 7.50000000 
28.52440000 14.41400000 7.50000000 
27.80160000 13.19410000 7.50000000 
28.49660000 11.95820000 7.50000000 
27.77380000 10.73830000 7.50000000 
28.46880000 9.50235000 7.50000000 
30.69300000 18.07370000 7.50000000 
29.97010000 16.85380000 7.50000000 
30.66520000 15.61790000 7.50000000 
29.94230000 14.39800000 7.50000000 
30.63740000 13.16200000 7.50000000 
29.91450000 11.94210000 7.50000000 
30.60960000 10.70620000 7.50000000 
29.88670000 9.48629000 7.50000000 
32.11080000 18.05770000 7.50000000 
32.80590000 16.82170000 7.50000000 
32.08300000 15.60180000 7.50000000 
32.77810000 14.36590000 7.50000000 
32.05520000 13.14600000 7.50000000 
32.75030000 11.91000000 7.50000000 
32.02740000 10.69010000 7.50000000 
32.72250000 9.45419000 7.50000000 
34.94660000 18.02560000 7.50000000 
34.22380000 16.80570000 7.50000000 
34.91880000 15.56970000 7.50000000 
34.19600000 14.34980000 7.50000000 
34.89100000 13.11390000 7.50000000 
34.16820000 11.89400000 7.50000000 
34.86320000 10.65800000 7.50000000 
34.14040000 9.43814000 7.50000000 
36.36450000 18.00950000 7.50000000 
37.05950000 16.77360000 7.50000000 
36.33670000 15.55370000 7.50000000 
37.03170000 14.31770000 7.50000000 
36.30890000 13.09780000 7.50000000 
37.00390000 11.86190000 7.50000000 
36.28110000 10.64200000 7.50000000 
36.97610000 9.40604000 7.50000000 
39.20030000 17.97740000 7.50000000 
38.47740000 16.75750000 7.50000000 
39.17240000 15.52160000 7.50000000 
38.44960000 14.30170000 7.50000000 
39.14460000 13.06570000 7.50000000 
38.42180000 11.84580000 7.50000000 
39.11680000 10.60990000 7.50000000 
40.61810000 17.96140000 7.50000000 
41.31320000 16.72540000 7.50000000 
40.59030000 15.50550000 7.50000000 
41.28540000 14.26960000 7.50000000 
40.56250000 13.04970000 7.50000000 
41.25760000 11.81370000 7.50000000 
40.53470000 10.59380000 7.50000000 
43.45390000 17.92930000 7.50000000 
42.73110000 16.70940000 7.50000000 
43.42610000 15.47340000 7.50000000 
42.70330000 14.25350000 7.50000000 
43.39830000 13.01760000 7.50000000 
42.67550000 11.79770000 7.50000000 
43.37050000 10.56170000 7.50000000 
44.87180000 17.91320000 7.50000000 
44.84400000 15.45740000 7.50000000 
44.81620000 13.00150000 7.50000000 
44.78840000 10.54570000 7.50000000 
45.56680000 16.67730000 7.50000000 
45.53900000 14.22140000 7.50000000 
45.51120000 11.76560000 7.50000000 
47.70750000 17.88110000 7.50000000 
46.98470000 16.66120000 7.50000000 
47.67970000 15.42530000 7.50000000 
46.95690000 14.20540000 7.50000000 
47.65190000 12.96940000 7.50000000 
46.92910000 11.74950000 7.50000000 
47.62410000 10.51360000 7.50000000 
49.12540000 17.86510000 7.50000000 
49.82050000 16.62910000 7.50000000 
49.09760000 15.40920000 7.50000000 
49.79270000 14.17330000 7.50000000 
49.06980000 12.95340000 7.50000000 
49.76490000 11.71740000 7.50000000 
49.04200000 10.49750000 7.50000000 
51.96120000 17.83290000 7.50000000 
51.23830000 16.61310000 7.50000000 
51.93340000 15.37710000 7.50000000 
51.21050000 14.15720000 7.50000000 
51.90560000 12.92130000 7.50000000 
51.18270000 11.70140000 7.50000000 
51.87780000 10.46540000 7.50000000 
53.37910000 17.81690000 7.50000000 
54.07410000 16.58100000 7.50000000 
53.35130000 15.36110000 7.50000000 
54.04630000 14.12510000 7.50000000 
53.32350000 12.90520000 7.50000000 
54.01850000 11.66930000 7.50000000 
53.29570000 10.44940000 7.50000000 
56.21480000 17.78480000 7.50000000 
55.49200000 16.56490000 7.50000000 
56.18700000 15.32900000 7.50000000 
55.46420000 14.10910000 7.50000000 
56.15920000 12.87310000 7.50000000 
55.43640000 11.65320000 7.50000000 
56.13140000 10.41730000 7.50000000 
57.63270000 17.76870000 7.50000000 
58.32770000 16.53280000 7.50000000 
57.60490000 15.31290000 7.50000000 
58.29990000 14.07700000 7.50000000 
57.57710000 12.85710000 7.50000000 
58.27210000 11.62110000 7.50000000 
57.54930000 10.40120000 7.50000000 
60.46850000 17.73660000 7.50000000 
59.74560000 16.51670000 7.50000000 
60.44070000 15.28080000 7.50000000 
59.71780000 14.06090000 7.50000000 
60.41290000 12.82500000 7.50000000 
59.69000000 11.60510000 7.50000000 
60.38510000 10.36910000 7.50000000 
61.88640000 17.72060000 7.50000000 
62.58140000 16.48460000 7.50000000 
61.85860000 15.26470000 7.50000000 
62.55360000 14.02880000 7.50000000 
61.83080000 12.80890000 7.50000000 
62.52580000 11.57300000 7.50000000 
61.80290000 10.35310000 7.50000000 
64.72210000 17.68850000 7.50000000 
63.99930000 16.46860000 7.50000000 
64.69430000 15.23260000 7.50000000 
63.97150000 14.01270000 7.50000000 
64.66650000 12.77680000 7.50000000 
63.94370000 11.55690000 7.50000000 
64.63870000 10.32100000 7.50000000 
66.14000000 17.67240000 7.50000000 
66.83500000 16.43650000 7.50000000 
66.11220000 15.21660000 7.50000000 
66.80720000 13.98060000 7.50000000 
66.08440000 12.76080000 7.50000000 
66.77940000 11.52480000 7.50000000 
66.05660000 10.30490000 7.50000000 
68.97580000 17.64030000 7.50000000 
68.25290000 16.42040000 7.50000000 
68.94800000 15.18450000 7.50000000 
68.22510000 13.96460000 7.50000000 
68.92020000 12.72860000 7.50000000 
68.19730000 11.50880000 7.50000000 
68.89240000 10.27280000 7.50000000 
70.39360000 17.62430000 7.50000000 
71.08870000 16.38830000 7.50000000 
70.36580000 15.16840000 7.50000000 
71.06090000 13.93250000 7.50000000 
70.33800000 12.71260000 7.50000000 
71.03310000 11.47670000 7.50000000 
70.31020000 10.25680000 7.50000000 
73.22940000 17.59220000 7.50000000 
72.50660000 16.37230000 7.50000000 
73.20160000 15.13630000 7.50000000 
72.47880000 13.91640000 7.50000000 
73.17380000 12.68050000 7.50000000 
72.45100000 11.46060000 7.50000000 
73.14600000 10.22470000 7.50000000 
74.64730000 17.57610000 7.50000000 
75.34230000 16.34020000 7.50000000 
74.61950000 15.12030000 7.50000000 
75.31450000 13.88430000 7.50000000 
74.59170000 12.66440000 7.50000000 
75.28670000 11.42850000 7.50000000 
74.56390000 10.20860000 7.50000000 
76.78800000 18.78000000 7.50000000 
77.48300000 17.54400000 7.50000000 
76.76020000 16.32410000 7.50000000 
77.45520000 15.08820000 7.50000000 
76.73240000 13.86830000 7.50000000 
77.42740000 12.63230000 7.50000000 
76.70460000 11.41240000 7.50000000 
77.39960000 10.17650000 7.50000000 
79.62380000 18.74790000 7.50000000 
78.90090000 17.52800000 7.50000000 
79.59600000 16.29200000 7.50000000 
78.87310000 15.07210000 7.50000000 
79.56820000 13.83620000 7.50000000 
78.84530000 12.61630000 7.50000000 
79.54040000 11.38030000 7.50000000 
78.81750000 10.16040000 7.50000000 
81.04170000 18.73180000 7.50000000 
81.01390000 16.27600000 7.50000000 
80.98600000 13.82010000 7.50000000 
80.95820000 11.36430000 7.50000000 
81.73670000 17.49590000 7.50000000 
81.70890000 15.04000000 7.50000000 
81.68110000 12.58420000 7.50000000 
81.65330000 10.12830000 7.50000000 
83.87740000 18.69970000 7.50000000 
83.15460000 17.47980000 7.50000000 
83.84960000 16.24390000 7.50000000 
83.12680000 15.02400000 7.50000000 
83.82180000 13.78800000 7.50000000 
83.09900000 12.56810000 7.50000000 
83.79400000 11.33220000 7.50000000 
83.07120000 10.11230000 7.50000000 
85.29530000 18.68370000 7.50000000 
85.99030000 17.44770000 7.50000000 
85.26750000 16.22780000 7.50000000 
85.96250000 14.99190000 7.50000000 
85.23970000 13.77200000 7.50000000 
85.93470000 12.53600000 7.50000000 
85.21190000 11.31610000 7.50000000 
85.90690000 10.08020000 7.50000000 
88.13110000 18.65160000 7.50000000 
87.40820000 17.43170000 7.50000000 
88.10330000 16.19570000 7.50000000 
87.38040000 14.97580000 7.50000000 
88.07550000 13.73990000 7.50000000 
87.35260000 12.52000000 7.50000000 
88.04770000 11.28400000 7.50000000 
87.32480000 10.06410000 7.50000000 
89.54890000 18.63550000 7.50000000 
90.24400000 17.39960000 7.50000000 
89.52110000 16.17970000 7.50000000 
90.21620000 14.94370000 7.50000000 
89.49330000 13.72380000 7.50000000 
90.18840000 12.48790000 7.50000000 
89.46550000 11.26800000 7.50000000 
90.16060000 10.03200000 7.50000000 
92.38470000 18.60340000 7.50000000 
91.66190000 17.38350000 7.50000000 
92.35690000 16.14760000 7.50000000 
91.63410000 14.92770000 7.50000000 
92.32910000 13.69170000 7.50000000 
91.60630000 12.47180000 7.50000000 
92.30130000 11.23590000 7.50000000 
91.57850000 10.01600000 7.50000000 
93.80260000 18.58740000 7.50000000 
94.49760000 17.35140000 7.50000000 
93.77480000 16.13150000 7.50000000 
94.46980000 14.89560000 7.50000000 
93.74700000 13.67570000 7.50000000 
94.44200000 12.43970000 7.50000000 
93.71920000 11.21980000 7.50000000 
94.41420000 9.98388000 7.50000000 
96.63830000 18.55530000 7.50000000 
95.91550000 17.33540000 7.50000000 
96.61050000 16.09940000 7.50000000 
95.88770000 14.87950000 7.50000000 
96.58270000 13.64360000 7.50000000 
95.85990000 12.42370000 7.50000000 
96.55490000 11.18770000 7.50000000 
95.83210000 9.96783000 7.50000000 
98.05620000 18.53920000 7.50000000 
98.75130000 17.30330000 7.50000000 
98.02840000 16.08340000 7.50000000 
98.72350000 14.84740000 7.50000000 
98.00060000 13.62750000 7.50000000 
98.69570000 12.39160000 7.50000000 
97.97280000 11.17170000 7.50000000 
98.66790000 9.93573000 7.50000000 
100.89200000 18.50710000 7.50000000 
100.16900000 17.28720000 7.50000000 
100.86400000 16.05130000 7.50000000 
100.14100000 14.83140000 7.50000000 
100.83600000 13.59540000 7.50000000 
100.11400000 12.37550000 7.50000000 
100.80900000 11.13960000 7.50000000 
100.08600000 9.91968000 7.50000000 
102.31000000 18.49110000 7.50000000 
103.00500000 17.25510000 7.50000000 
102.28200000 16.03520000 7.50000000 
102.97700000 14.79930000 7.50000000 
102.25400000 13.57940000 7.50000000 
102.94900000 12.34340000 7.50000000 
102.22600000 11.12350000 7.50000000 
102.92200000 9.88758000 7.50000000 
105.14600000 18.45890000 7.50000000 
104.42300000 17.23910000 7.50000000 
105.11800000 16.00310000 7.50000000 
104.39500000 14.78320000 7.50000000 
105.09000000 13.54730000 7.50000000 
104.36700000 12.32740000 7.50000000 
105.06200000 11.09140000 7.50000000 
104.33900000 9.87152000 7.50000000 
106.56400000 18.44290000 7.50000000 
107.25900000 17.20690000 7.50000000 
106.53600000 15.98710000 7.50000000 
107.23100000 14.75110000 7.50000000 
106.50800000 13.53120000 7.50000000 
107.20300000 12.29530000 7.50000000 
106.48000000 11.07540000 7.50000000 
107.17500000 9.83942000 7.50000000 
11.56550000 19.51830000 7.50000000 
13.73400000 23.17800000 7.50000000 
13.01110000 21.95810000 7.50000000 
13.70620000 20.72220000 7.50000000 
12.98330000 19.50230000 7.50000000 
15.90250000 26.83770000 7.50000000 
15.17970000 25.61780000 7.50000000 
15.87470000 24.38190000 7.50000000 
15.15190000 23.16200000 7.50000000 
15.84690000 21.92600000 7.50000000 
15.12410000 20.70610000 7.50000000 
15.81910000 19.47020000 7.50000000 
18.04320000 28.04150000 7.50000000 
17.32040000 26.82170000 7.50000000 
18.01540000 25.58570000 7.50000000 
17.29260000 24.36580000 7.50000000 
17.98760000 23.12990000 7.50000000 
17.26480000 21.91000000 7.50000000 
17.95980000 20.67400000 7.50000000 
17.23700000 19.45410000 7.50000000 
19.46110000 28.02550000 7.50000000 
20.15620000 26.78960000 7.50000000 
19.43330000 25.56970000 7.50000000 
20.12840000 24.33370000 7.50000000 
19.40550000 23.11380000 7.50000000 
20.10060000 21.87790000 7.50000000 
19.37770000 20.65800000 7.50000000 
20.07280000 19.42200000 7.50000000 
22.29690000 27.99340000 7.50000000 
21.57400000 26.77350000 7.50000000 
22.26910000 25.53760000 7.50000000 
21.54620000 24.31770000 7.50000000 
22.24130000 23.08170000 7.50000000 
21.51840000 21.86180000 7.50000000 
22.21350000 20.62590000 7.50000000 
21.49060000 19.40600000 7.50000000 
23.71480000 27.97730000 7.50000000 
24.40980000 26.74140000 7.50000000 
23.68700000 25.52150000 7.50000000 
24.38200000 24.28560000 7.50000000 
23.65920000 23.06570000 7.50000000 
24.35420000 21.82970000 7.50000000 
23.63140000 20.60980000 7.50000000 
24.32640000 19.37390000 7.50000000 
26.55050000 27.94520000 7.50000000 
25.82770000 26.72530000 7.50000000 
26.52270000 25.48940000 7.50000000 
25.79990000 24.26950000 7.50000000 
26.49490000 23.03360000 7.50000000 
25.77210000 21.81370000 7.50000000 
26.46710000 20.57770000 7.50000000 
25.74430000 19.35780000 7.50000000 
27.96840000 27.92920000 7.50000000 
28.66340000 26.69320000 7.50000000 
27.94060000 25.47330000 7.50000000 
28.63560000 24.23740000 7.50000000 
27.91280000 23.01750000 7.50000000 
28.60780000 21.78160000 7.50000000 
27.88500000 20.56170000 7.50000000 
28.58000000 19.32570000 7.50000000 
30.80420000 27.89710000 7.50000000 
30.08130000 26.67720000 7.50000000 
30.77640000 25.44120000 7.50000000 
30.05350000 24.22130000 7.50000000 
30.74860000 22.98540000 7.50000000 
30.02570000 21.76550000 7.50000000 
30.72080000 20.52960000 7.50000000 
29.99790000 19.30970000 7.50000000 
32.22210000 27.88100000 7.50000000 
32.91710000 26.64510000 7.50000000 
32.19420000 25.42520000 7.50000000 
32.88930000 24.18920000 7.50000000 
32.16640000 22.96940000 7.50000000 
32.86150000 21.73340000 7.50000000 
32.13860000 20.51350000 7.50000000 
32.83370000 19.27760000 7.50000000 
35.05780000 27.84890000 7.50000000 
34.33500000 26.62900000 7.50000000 
35.03000000 25.39310000 7.50000000 
34.30720000 24.17320000 7.50000000 
35.00220000 22.93720000 7.50000000 
34.27940000 21.71740000 7.50000000 
34.97440000 20.48140000 7.50000000 
34.25160000 19.26150000 7.50000000 
36.47570000 27.83290000 7.50000000 
37.17070000 26.59690000 7.50000000 
36.44790000 25.37700000 7.50000000 
37.14290000 24.14110000 7.50000000 
36.42010000 22.92120000 7.50000000 
37.11510000 21.68530000 7.50000000 
36.39230000 20.46540000 7.50000000 
37.08730000 19.22940000 7.50000000 
39.31150000 27.80080000 7.50000000 
38.58860000 26.58090000 7.50000000 
39.28370000 25.34490000 7.50000000 
38.56080000 24.12500000 7.50000000 
39.25590000 22.88910000 7.50000000 
38.53300000 21.66920000 7.50000000 