written by TR 
1.000000000 
108.481827000 0.000000000 0.000000000 
54.240913500 93.948018031 0.000000000 
0.000000000 0.000000000 18.400000000 
Type1 
7804
Cartesian 
0.72284150 1.21989569 7.50000000 
0.00000000 0.00000000 7.50000000 
2.89136601 4.87958276 7.50000000 
2.16852451 3.65968707 7.50000000 
2.86356442 2.42374012 7.50000000 
2.14072291 1.20384443 7.50000000 
5.05989052 8.53926983 7.50000000 
4.33704902 7.31937414 7.50000000 
5.03208892 6.08342719 7.50000000 
4.30924742 4.86353150 7.50000000 
5.00428733 3.62758455 7.50000000 
4.28144582 2.40768886 7.50000000 
4.97648573 1.17174191 7.50000000 
7.22841503 12.19895690 7.50000000 
6.50557353 10.97906121 7.50000000 
7.20061343 9.74311426 7.50000000 
6.47777193 8.52321857 7.50000000 
7.17281184 7.28727162 7.50000000 
6.44997033 6.06737593 7.50000000 
7.14501024 4.83142898 7.50000000 
6.42216874 3.61153329 7.50000000 
7.11720864 2.37558634 7.50000000 
6.39436714 1.15569065 7.50000000 
9.39693954 15.85864397 7.50000000 
8.67409804 14.63874828 7.50000000 
9.36913794 13.40280133 7.50000000 
8.64629644 12.18290564 7.50000000 
9.34133634 10.94695869 7.50000000 
8.61849484 9.72706300 7.50000000 
9.31353475 8.49111605 7.50000000 
8.59069325 7.27122036 7.50000000 
9.28573315 6.03527341 7.50000000 
8.56289165 4.81537772 7.50000000 
9.25793155 3.57943077 7.50000000 
8.53509005 2.35953508 7.50000000 
9.23012996 1.12358813 7.50000000 
11.56546405 19.51833104 7.50000000 
10.84262254 18.29843535 7.50000000 
11.53766245 17.06248840 7.50000000 
10.81482095 15.84259271 7.50000000 
11.50986085 14.60664576 7.50000000 
10.78701935 13.38675007 7.50000000 
11.48205926 12.15080312 7.50000000 
10.75921775 10.93090743 7.50000000 
11.45425766 9.69496048 7.50000000 
10.73141616 8.47506479 7.50000000 
11.42645606 7.23911784 7.50000000 
10.70361456 6.01922215 7.50000000 
11.39865447 4.78327520 7.50000000 
10.67581296 3.56337951 7.50000000 
11.37085287 2.32743256 7.50000000 
10.64801137 1.10753687 7.50000000 
13.73398856 23.17801811 7.50000000 
13.01114705 21.95812242 7.50000000 
13.70618696 20.72217547 7.50000000 
12.98334546 19.50227978 7.50000000 
13.67838536 18.26633283 7.50000000 
12.95554386 17.04643714 7.50000000 
13.65058377 15.81049019 7.50000000 
12.92774226 14.59059450 7.50000000 
13.62278217 13.35464755 7.50000000 
12.89994067 12.13475186 7.50000000 
13.59498057 10.89880491 7.50000000 
12.87213907 9.67890922 7.50000000 
13.56717898 8.44296228 7.50000000 
12.84433747 7.22306659 7.50000000 
13.53937738 5.98711964 7.50000000 
12.81653588 4.76722395 7.50000000 
13.51157578 3.53127700 7.50000000 
12.78873428 2.31138131 7.50000000 
13.48377419 1.07543436 7.50000000 
15.90251306 26.83770518 7.50000000 
15.17967156 25.61780949 7.50000000 
15.87471147 24.38186254 7.50000000 
15.15186997 23.16196685 7.50000000 
15.84690987 21.92601990 7.50000000 
15.12406837 20.70612421 7.50000000 
15.81910827 19.47017727 7.50000000 
15.09626677 18.25028157 7.50000000 
15.79130668 17.01433463 7.50000000 
15.06846517 15.79443894 7.50000000 
15.76350508 14.55849199 7.50000000 
15.04066358 13.33859630 7.50000000 
15.73570348 12.10264935 7.50000000 
15.01286198 10.88275366 7.50000000 
15.70790189 9.64680671 7.50000000 
14.98506038 8.42691102 7.50000000 
15.68010029 7.19096407 7.50000000 
14.95725879 5.97106838 7.50000000 
15.65229869 4.73512143 7.50000000 
14.92945719 3.51522574 7.50000000 
15.62449710 2.27927879 7.50000000 
14.90165559 1.05938310 7.50000000 
18.07103757 30.49739225 7.50000000 
17.34819607 29.27749656 7.50000000 
18.04323598 28.04154962 7.50000000 
17.32039447 26.82165392 7.50000000 
18.01543438 25.58570698 7.50000000 
17.29259288 24.36581129 7.50000000 
17.98763278 23.12986434 7.50000000 
17.26479128 21.90996865 7.50000000 
17.95983119 20.67402170 7.50000000 
17.23698968 19.45412601 7.50000000 
17.93202959 18.21817906 7.50000000 
17.20918809 16.99828337 7.50000000 
17.90422799 15.76233642 7.50000000 
17.18138649 14.54244073 7.50000000 
17.87642640 13.30649378 7.50000000 
17.15358489 12.08659809 7.50000000 
17.84862480 10.85065114 7.50000000 
17.12578330 9.63075545 7.50000000 
17.82082320 8.39480850 7.50000000 
17.09798170 7.17491281 7.50000000 
17.79302161 5.93896586 7.50000000 
17.07018010 4.71907017 7.50000000 
17.76522001 3.48312322 7.50000000 
17.04237851 2.26322753 7.50000000 
17.73741841 1.02728058 7.50000000 
20.23956208 34.15707933 7.50000000 
19.51672058 32.93718364 7.50000000 
20.21176049 31.70123669 7.50000000 
19.48891898 30.48134100 7.50000000 
20.18395889 29.24539405 7.50000000 
19.46111739 28.02549836 7.50000000 
20.15615729 26.78955141 7.50000000 
19.43331579 25.56965572 7.50000000 
20.12835570 24.33370877 7.50000000 
19.40551419 23.11381308 7.50000000 
20.10055410 21.87786613 7.50000000 
19.37771260 20.65797044 7.50000000 
20.07275250 19.42202349 7.50000000 
19.34991100 18.20212780 7.50000000 
20.04495091 16.96618085 7.50000000 
19.32210940 15.74628516 7.50000000 
20.01714931 14.51033821 7.50000000 
19.29430781 13.29044252 7.50000000 
19.98934771 12.05449557 7.50000000 
19.26650621 10.83459988 7.50000000 
19.96154612 9.59865293 7.50000000 
19.23870461 8.37875724 7.50000000 
19.93374452 7.14281029 7.50000000 
19.21090302 5.92291460 7.50000000 
19.90594292 4.68696765 7.50000000 
19.18310142 3.46707196 7.50000000 
19.87814132 2.23112501 7.50000000 
19.15529982 1.01122932 7.50000000 
22.40808659 37.81676640 7.50000000 
21.68524509 36.59687071 7.50000000 
22.38028499 35.36092376 7.50000000 
21.65744349 34.14102807 7.50000000 
22.35248340 32.90508112 7.50000000 
21.62964189 31.68518543 7.50000000 
22.32468180 30.44923848 7.50000000 
21.60184030 29.22934279 7.50000000 
22.29688020 27.99339584 7.50000000 
21.57403870 26.77350015 7.50000000 
22.26907861 25.53755320 7.50000000 
21.54623710 24.31765751 7.50000000 
22.24127701 23.08171056 7.50000000 
21.51843551 21.86181487 7.50000000 
22.21347541 20.62586792 7.50000000 
21.49063391 19.40597223 7.50000000 
22.18567382 18.17002528 7.50000000 
21.46283231 16.95012959 7.50000000 
22.15787222 15.71418264 7.50000000 
21.43503072 14.49428695 7.50000000 
22.13007062 13.25834000 7.50000000 
21.40722912 12.03844431 7.50000000 
22.10226903 10.80249736 7.50000000 
21.37942752 9.58260167 7.50000000 
22.07446743 8.34665472 7.50000000 
21.35162593 7.12675903 7.50000000 
22.04666583 5.89081208 7.50000000 
21.32382433 4.67091639 7.50000000 
22.01886424 3.43496944 7.50000000 
21.29602273 2.21507375 7.50000000 
21.99106264 0.97912680 7.50000000 
24.57661110 41.47645347 7.50000000 
23.85376960 40.25655778 7.50000000 
24.54880950 39.02061083 7.50000000 
23.82596800 37.80071514 7.50000000 
24.52100791 36.56476819 7.50000000 
23.79816640 35.34487250 7.50000000 
24.49320631 34.10892555 7.50000000 
23.77036481 32.88902986 7.50000000 
24.46540471 31.65308291 7.50000000 
23.74256321 30.43318722 7.50000000 
24.43760312 29.19724027 7.50000000 
23.71476161 27.97734458 7.50000000 
24.40980152 26.74139763 7.50000000 
23.68696002 25.52150194 7.50000000 
24.38199992 24.28555499 7.50000000 
23.65915842 23.06565930 7.50000000 
24.35419833 21.82971235 7.50000000 
23.63135682 20.60981666 7.50000000 
24.32639673 19.37386971 7.50000000 
23.60355523 18.15397402 7.50000000 
24.29859513 16.91802707 7.50000000 
23.57575363 15.69813138 7.50000000 
24.27079354 14.46218443 7.50000000 
23.54795203 13.24228874 7.50000000 
24.24299194 12.00634179 7.50000000 
23.52015044 10.78644610 7.50000000 
24.21519034 9.55049915 7.50000000 
23.49234884 8.33060346 7.50000000 
24.18738875 7.09465651 7.50000000 
23.46454724 5.87476082 7.50000000 
24.15958715 4.63881387 7.50000000 
23.43674565 3.41891818 7.50000000 
24.13178555 2.18297123 7.50000000 
23.40894405 0.96307554 7.50000000 
26.74513561 45.13614054 7.50000000 
26.02229411 43.91624485 7.50000000 
26.71733401 42.68029790 7.50000000 
25.99449251 41.46040221 7.50000000 
26.68953242 40.22445526 7.50000000 
25.96669091 39.00455957 7.50000000 
26.66173082 37.76861262 7.50000000 
25.93888932 36.54871693 7.50000000 
26.63392922 35.31276998 7.50000000 
25.91108772 34.09287429 7.50000000 
26.60612763 32.85692734 7.50000000 
25.88328612 31.63703165 7.50000000 
26.57832603 30.40108470 7.50000000 
25.85548453 29.18118901 7.50000000 
26.55052443 27.94524206 7.50000000 
25.82768293 26.72534637 7.50000000 
26.52272283 25.48939942 7.50000000 
25.79988133 24.26950373 7.50000000 
26.49492124 23.03355678 7.50000000 
25.77207974 21.81366109 7.50000000 
26.46711964 20.57771414 7.50000000 
25.74427814 19.35781845 7.50000000 
26.43931804 18.12187150 7.50000000 
25.71647654 16.90197581 7.50000000 
26.41151645 15.66602886 7.50000000 
25.68867495 14.44613317 7.50000000 
26.38371485 13.21018622 7.50000000 
25.66087335 11.99029053 7.50000000 
26.35591325 10.75434358 7.50000000 
25.63307175 9.53444789 7.50000000 
26.32811166 8.29850094 7.50000000 
25.60527015 7.07860525 7.50000000 
26.30031006 5.84265830 7.50000000 
25.57746856 4.62276261 7.50000000 
26.27250846 3.38681566 7.50000000 
25.54966696 2.16691997 7.50000000 
26.24470687 0.93097302 7.50000000 
28.91366012 48.79582761 7.50000000 
28.19081861 47.57593192 7.50000000 
28.88585852 46.33998497 7.50000000 
28.16301702 45.12008928 7.50000000 
28.85805692 43.88414233 7.50000000 
28.13521542 42.66424664 7.50000000 
28.83025533 41.42829969 7.50000000 
28.10741382 40.20840400 7.50000000 
28.80245373 38.97245705 7.50000000 
28.07961223 37.75256136 7.50000000 
28.77465213 36.51661441 7.50000000 
28.05181063 35.29671872 7.50000000 
28.74685054 34.06077177 7.50000000 
28.02400903 32.84087608 7.50000000 
28.71904894 31.60492913 7.50000000 
27.99620744 30.38503344 7.50000000 
28.69124734 29.14908649 7.50000000 
27.96840584 27.92919080 7.50000000 
28.66344575 26.69324385 7.50000000 
27.94060424 25.47334816 7.50000000 
28.63564415 24.23740121 7.50000000 
27.91280265 23.01750552 7.50000000 
28.60784255 21.78155857 7.50000000 
27.88500105 20.56166288 7.50000000 
28.58004096 19.32571593 7.50000000 
27.85719945 18.10582024 7.50000000 
28.55223936 16.86987329 7.50000000 
27.82939786 15.64997760 7.50000000 
28.52443776 14.41403065 7.50000000 
27.80159626 13.19413496 7.50000000 
28.49663617 11.95818801 7.50000000 
27.77379466 10.73829232 7.50000000 
28.46883457 9.50234537 7.50000000 
27.74599307 8.28244968 7.50000000 
28.44103297 7.04650273 7.50000000 
27.71819147 5.82660704 7.50000000 
28.41323138 4.59066009 7.50000000 
27.69038987 3.37076440 7.50000000 
28.38542978 2.13481745 7.50000000 
27.66258828 0.91492176 7.50000000 
31.08218463 52.45551468 7.50000000 
30.35934312 51.23561899 7.50000000 
31.05438303 49.99967204 7.50000000 
30.33154153 48.77977635 7.50000000 
31.02658143 47.54382940 7.50000000 
30.30373993 46.32393371 7.50000000 
30.99877984 45.08798676 7.50000000 
30.27593833 43.86809107 7.50000000 
30.97097824 42.63214412 7.50000000 
30.24813674 41.41224843 7.50000000 
30.94317664 40.17630148 7.50000000 
30.22033514 38.95640579 7.50000000 
30.91537505 37.72045884 7.50000000 
30.19253354 36.50056315 7.50000000 
30.88757345 35.26461620 7.50000000 
30.16473195 34.04472051 7.50000000 
30.85977185 32.80877356 7.50000000 
30.13693035 31.58887787 7.50000000 
30.83197026 30.35293092 7.50000000 
30.10912875 29.13303523 7.50000000 
30.80416866 27.89708828 7.50000000 
30.08132716 26.67719259 7.50000000 
30.77636706 25.44124564 7.50000000 
30.05352556 24.22134995 7.50000000 
30.74856547 22.98540300 7.50000000 
30.02572396 21.76550731 7.50000000 
30.72076387 20.52956036 7.50000000 
29.99792237 19.30966467 7.50000000 
30.69296227 18.07371772 7.50000000 
29.97012077 16.85382203 7.50000000 
30.66516068 15.61787508 7.50000000 
29.94231917 14.39797939 7.50000000 
30.63735908 13.16203244 7.50000000 
29.91451758 11.94213675 7.50000000 
30.60955748 10.70618980 7.50000000 
29.88671598 9.48629411 7.50000000 
30.58175589 8.25034716 7.50000000 
29.85891438 7.03045147 7.50000000 
30.55395429 5.79450452 7.50000000 
29.83111279 4.57460883 7.50000000 
30.52615269 3.33866188 7.50000000 
29.80331119 2.11876619 7.50000000 
30.49835110 0.88281924 7.50000000 
33.25070914 56.11520175 7.50000000 
32.52786763 54.89530606 7.50000000 
33.22290754 53.65935911 7.50000000 
32.50006604 52.43946342 7.50000000 
33.19510594 51.20351647 7.50000000 
32.47226444 49.98362078 7.50000000 
33.16730435 48.74767383 7.50000000 
32.44446284 47.52777814 7.50000000 
33.13950275 46.29183119 7.50000000 
32.41666125 45.07193550 7.50000000 
33.11170115 43.83598855 7.50000000 
32.38885965 42.61609286 7.50000000 
33.08389955 41.38014591 7.50000000 
32.36105805 40.16025022 7.50000000 
33.05609796 38.92430327 7.50000000 
32.33325646 37.70440758 7.50000000 
33.02829636 36.46846063 7.50000000 
32.30545486 35.24856494 7.50000000 
33.00049476 34.01261799 7.50000000 
32.27765326 32.79272230 7.50000000 
32.97269317 31.55677535 7.50000000 
32.24985167 30.33687966 7.50000000 
32.94489157 29.10093271 7.50000000 
32.22205007 27.88103702 7.50000000 
32.91708997 26.64509007 7.50000000 
32.19424847 25.42519438 7.50000000 
32.88928838 24.18924743 7.50000000 
32.16644687 22.96935174 7.50000000 
32.86148678 21.73340479 7.50000000 
32.13864528 20.51350910 7.50000000 
32.83368518 19.27756215 7.50000000 
32.11084368 18.05766646 7.50000000 
32.80588359 16.82171951 7.50000000 
32.08304208 15.60182382 7.50000000 
32.77808199 14.36587687 7.50000000 
32.05524049 13.14598118 7.50000000 
32.75028039 11.91003423 7.50000000 
32.02743889 10.69013854 7.50000000 
32.72247880 9.45419159 7.50000000 
31.99963729 8.23429590 7.50000000 
32.69467720 6.99834895 7.50000000 
31.97183570 5.77845326 7.50000000 
32.66687560 4.54250631 7.50000000 
31.94403410 3.32261062 7.50000000 
32.63907401 2.08666367 7.50000000 
31.91623250 0.86676798 7.50000000 
35.41923364 59.77488882 7.50000000 
34.69639214 58.55499313 7.50000000 
35.39143205 57.31904618 7.50000000 
34.66859054 56.09915049 7.50000000 
35.36363045 54.86320354 7.50000000 
34.64078895 53.64330785 7.50000000 
35.33582885 52.40736090 7.50000000 
34.61298735 51.18746521 7.50000000 
35.30802726 49.95151826 7.50000000 
34.58518575 48.73162257 7.50000000 
35.28022566 47.49567562 7.50000000 
34.55738416 46.27577993 7.50000000 
35.25242406 45.03983298 7.50000000 
34.52958256 43.81993729 7.50000000 
35.22462247 42.58399034 7.50000000 
34.50178096 41.36409465 7.50000000 
35.19682087 40.12814770 7.50000000 
34.47397937 38.90825201 7.50000000 
35.16901927 37.67230506 7.50000000 
34.44617777 36.45240937 7.50000000 
35.14121768 35.21646242 7.50000000 
34.41837617 33.99656673 7.50000000 
35.11341608 32.76061978 7.50000000 
34.39057458 31.54072409 7.50000000 
35.08561448 30.30477714 7.50000000 
34.36277298 29.08488145 7.50000000 
35.05781289 27.84893450 7.50000000 
34.33497138 26.62903881 7.50000000 
35.03001129 25.39309186 7.50000000 
34.30716979 24.17319617 7.50000000 
35.00220969 22.93724922 7.50000000 
34.27936819 21.71735353 7.50000000 
34.97440810 20.48140658 7.50000000 
34.25156659 19.26151089 7.50000000 
34.94660650 18.02556394 7.50000000 
34.22376500 16.80566825 7.50000000 
34.91880490 15.56972130 7.50000000 
34.19596340 14.34982561 7.50000000 
34.89100331 13.11387866 7.50000000 
34.16816180 11.89398297 7.50000000 
34.86320171 10.65803602 7.50000000 
34.14036021 9.43814033 7.50000000 
34.83540011 8.20219338 7.50000000 
34.11255861 6.98229769 7.50000000 
34.80759852 5.74635075 7.50000000 
34.08475701 4.52645505 7.50000000 
34.77979692 3.29050811 7.50000000 
34.05695542 2.07061242 7.50000000 
34.75199532 0.83466547 7.50000000 
37.58775815 63.43457589 7.50000000 
36.86491665 62.21468020 7.50000000 
37.55995656 60.97873325 7.50000000 
36.83711505 59.75883756 7.50000000 
37.53215496 58.52289061 7.50000000 
36.80931346 57.30299492 7.50000000 
37.50435336 56.06704797 7.50000000 
36.78151186 54.84715228 7.50000000 
37.47655177 53.61120533 7.50000000 
36.75371026 52.39130964 7.50000000 
37.44875017 51.15536269 7.50000000 
36.72590867 49.93546700 7.50000000 
37.42094857 48.69952005 7.50000000 
36.69810707 47.47962436 7.50000000 
37.39314698 46.24367741 7.50000000 
36.67030547 45.02378172 7.50000000 
37.36534538 43.78783477 7.50000000 
36.64250388 42.56793908 7.50000000 
37.33754378 41.33199213 7.50000000 
36.61470228 40.11209644 7.50000000 
37.30974219 38.87614949 7.50000000 
36.58690068 37.65625380 7.50000000 
37.28194059 36.42030685 7.50000000 
36.55909909 35.20041116 7.50000000 
37.25413899 33.96446421 7.50000000 
36.53129749 32.74456852 7.50000000 
37.22633740 31.50862157 7.50000000 
36.50349589 30.28872588 7.50000000 
37.19853580 29.05277893 7.50000000 
36.47569430 27.83288324 7.50000000 
37.17073420 26.59693629 7.50000000 
36.44789270 25.37704060 7.50000000 
37.14293261 24.14109365 7.50000000 
36.42009110 22.92119796 7.50000000 
37.11513101 21.68525101 7.50000000 
36.39228951 20.46535532 7.50000000 
37.08732941 19.22940837 7.50000000 
36.36448791 18.00951268 7.50000000 
37.05952782 16.77356573 7.50000000 
36.33668631 15.55367004 7.50000000 
37.03172622 14.31772310 7.50000000 
36.30888472 13.09782740 7.50000000 
37.00392462 11.86188046 7.50000000 
36.28108312 10.64198477 7.50000000 
36.97612302 9.40603782 7.50000000 
36.25328152 8.18614213 7.50000000 
36.94832143 6.95019518 7.50000000 
36.22547993 5.73029949 7.50000000 
36.92051983 4.49435254 7.50000000 
36.19767833 3.27445685 7.50000000 
36.89271823 2.03850990 7.50000000 
36.16987673 0.81861421 7.50000000 
39.75628266 67.09426296 7.50000000 
39.03344116 65.87436727 7.50000000 
39.72848107 64.63842032 7.50000000 
39.00563956 63.41852463 7.50000000 
39.70067947 62.18257768 7.50000000 
38.97783797 60.96268199 7.50000000 
39.67287787 59.72673504 7.50000000 
38.95003637 58.50683935 7.50000000 
39.64507627 57.27089240 7.50000000 
38.92223477 56.05099671 7.50000000 
39.61727468 54.81504976 7.50000000 
38.89443318 53.59515407 7.50000000 
39.58947308 52.35920712 7.50000000 
38.86663158 51.13931143 7.50000000 
39.56167148 49.90336448 7.50000000 
38.83882998 48.68346879 7.50000000 
39.53386989 47.44752184 7.50000000 
38.81102839 46.22762615 7.50000000 
39.50606829 44.99167920 7.50000000 
38.78322679 43.77178351 7.50000000 
39.47826669 42.53583656 7.50000000 
38.75542519 41.31594087 7.50000000 
39.45046510 40.07999392 7.50000000 
38.72762359 38.86009823 7.50000000 
39.42266350 37.62415128 7.50000000 
38.69982200 36.40425559 7.50000000 
39.39486190 35.16830864 7.50000000 
38.67202040 33.94841295 7.50000000 
39.36706031 32.71246600 7.50000000 
38.64421880 31.49257031 7.50000000 
39.33925871 30.25662336 7.50000000 
38.61641721 29.03672767 7.50000000 
39.31145711 27.80078072 7.50000000 
38.58861561 26.58088503 7.50000000 
39.28365552 25.34493808 7.50000000 
38.56081401 24.12504239 7.50000000 
39.25585392 22.88909545 7.50000000 
38.53301242 21.66919976 7.50000000 
39.22805232 20.43325281 7.50000000 
38.50521082 19.21335712 7.50000000 
39.20025073 17.97741017 7.50000000 
38.47740922 16.75751448 7.50000000 
39.17244913 15.52156753 7.50000000 
38.44960763 14.30167184 7.50000000 
39.14464753 13.06572489 7.50000000 
38.42180603 11.84582920 7.50000000 
39.11684594 10.60988225 7.50000000 
38.39400443 9.38998656 7.50000000 
39.08904434 8.15403961 7.50000000 
38.36620284 6.93414392 7.50000000 
39.06124274 5.69819697 7.50000000 
38.33840124 4.47830128 7.50000000 
39.03344115 3.24235433 7.50000000 
38.31059964 2.02245864 7.50000000 
39.00563955 0.78651169 7.50000000 
41.92480717 70.75395003 7.50000000 
41.20196567 69.53405434 7.50000000 
41.89700557 68.29810739 7.50000000 
41.17416407 67.07821170 7.50000000 
41.86920398 65.84226475 7.50000000 
41.14636247 64.62236906 7.50000000 
41.84140238 63.38642211 7.50000000 
41.11856088 62.16652642 7.50000000 
41.81360078 60.93057947 7.50000000 
41.09075928 59.71068378 7.50000000 
41.78579919 58.47473683 7.50000000 
41.06295768 57.25484114 7.50000000 
41.75799759 56.01889419 7.50000000 
41.03515609 54.79899850 7.50000000 
41.73019599 53.56305155 7.50000000 
41.00735449 52.34315586 7.50000000 
41.70239440 51.10720891 7.50000000 
40.97955289 49.88731322 7.50000000 
41.67459280 48.65136627 7.50000000 
40.95175130 47.43147058 7.50000000 
41.64679120 46.19552363 7.50000000 
40.92394970 44.97562794 7.50000000 
41.61898961 43.73968099 7.50000000 
40.89614810 42.51978530 7.50000000 
41.59118801 41.28383835 7.50000000 
40.86834651 40.06394266 7.50000000 
41.56338641 38.82799571 7.50000000 
40.84054491 37.60810002 7.50000000 
41.53558482 36.37215307 7.50000000 
40.81274331 35.15225738 7.50000000 
41.50778322 33.91631044 7.50000000 
40.78494172 32.69641474 7.50000000 
41.47998162 31.46046780 7.50000000 
40.75714012 30.24057211 7.50000000 
41.45218003 29.00462516 7.50000000 
40.72933852 27.78472947 7.50000000 
41.42437843 26.54878252 7.50000000 
40.70153693 25.32888683 7.50000000 
41.39657683 24.09293988 7.50000000 
40.67373533 22.87304419 7.50000000 
41.36877524 21.63709724 7.50000000 
40.64593373 20.41720155 7.50000000 
41.34097364 19.18125460 7.50000000 
40.61813214 17.96135891 7.50000000 
41.31317204 16.72541196 7.50000000 
40.59033054 15.50551627 7.50000000 
41.28537045 14.26956932 7.50000000 
40.56252894 13.04967363 7.50000000 
41.25756885 11.81372668 7.50000000 
40.53472735 10.59383099 7.50000000 
41.22976725 9.35788404 7.50000000 
40.50692575 8.13798835 7.50000000 
41.20196566 6.90204140 7.50000000 
40.47912415 5.68214571 7.50000000 
41.17416406 4.44619876 7.50000000 
40.45132256 3.22630307 7.50000000 
41.14636246 1.99035612 7.50000000 
40.42352096 0.77046043 7.50000000 
44.09333168 74.41363710 7.50000000 
43.37049018 73.19374141 7.50000000 
44.06553008 71.95779446 7.50000000 
43.34268858 70.73789877 7.50000000 
44.03772849 69.50195182 7.50000000 
43.31488698 68.28205613 7.50000000 
44.00992689 67.04610918 7.50000000 
43.28708539 65.82621349 7.50000000 
43.98212529 64.59026654 7.50000000 
43.25928379 63.37037085 7.50000000 
43.95432370 62.13442390 7.50000000 
43.23148219 60.91452821 7.50000000 
43.92652210 59.67858126 7.50000000 
43.20368060 58.45868557 7.50000000 
43.89872050 57.22273862 7.50000000 
43.17587900 56.00284293 7.50000000 
43.87091891 54.76689598 7.50000000 
43.14807740 53.54700029 7.50000000 
43.84311731 52.31105334 7.50000000 
43.12027581 51.09115765 7.50000000 
43.81531571 49.85521070 7.50000000 
43.09247421 48.63531501 7.50000000 
43.78751412 47.39936806 7.50000000 
43.06467261 46.17947237 7.50000000 
43.75971252 44.94352542 7.50000000 
43.03687102 43.72362973 7.50000000 
43.73191092 42.48768279 7.50000000 
43.00906942 41.26778709 7.50000000 
43.70410933 40.03184015 7.50000000 
42.98126782 38.81194446 7.50000000 
43.67630773 37.57599751 7.50000000 
42.95346623 36.35610182 7.50000000 
43.64850613 35.12015487 7.50000000 
42.92566463 33.90025918 7.50000000 
43.62070453 32.66431223 7.50000000 
42.89786303 31.44441654 7.50000000 
43.59290294 30.20846959 7.50000000 
42.87006144 28.98857390 7.50000000 
43.56510134 27.75262695 7.50000000 
42.84225984 26.53273126 7.50000000 
43.53729974 25.29678431 7.50000000 
42.81445824 24.07688862 7.50000000 
43.50949815 22.84094167 7.50000000 
42.78665665 21.62104598 7.50000000 
43.48169655 20.38509903 7.50000000 
42.75885505 19.16520334 7.50000000 
43.45389495 17.92925639 7.50000000 
42.73105345 16.70936070 7.50000000 
43.42609336 15.47341375 7.50000000 
42.70325185 14.25351806 7.50000000 
43.39829176 13.01757111 7.50000000 
42.67545026 11.79767542 7.50000000 
43.37049016 10.56172847 7.50000000 
42.64764866 9.34183278 7.50000000 
43.34268857 8.10588583 7.50000000 
42.61984706 6.88599014 7.50000000 
43.31488697 5.65004319 7.50000000 
42.59204547 4.43014750 7.50000000 
43.28708537 3.19420055 7.50000000 
42.56424387 1.97430486 7.50000000 
43.25928378 0.73835791 7.50000000 
46.26185619 78.07332417 7.50000000 
45.53901469 76.85342848 7.50000000 
46.23405459 75.61748153 7.50000000 
45.51121309 74.39758584 7.50000000 
46.20625299 73.16163889 7.50000000 
45.48341149 71.94174320 7.50000000 
46.17845140 70.70579625 7.50000000 
45.45560990 69.48590056 7.50000000 
46.15064980 68.24995361 7.50000000 
45.42780830 67.03005792 7.50000000 
46.12284820 65.79411097 7.50000000 
45.40000670 64.57421528 7.50000000 
46.09504661 63.33826833 7.50000000 
45.37220510 62.11837264 7.50000000 
46.06724501 60.88242569 7.50000000 
45.34440351 59.66253000 7.50000000 
46.03944341 58.42658305 7.50000000 
45.31660191 57.20668736 7.50000000 
46.01164182 55.97074041 7.50000000 
45.28880031 54.75084472 7.50000000 
45.98384022 53.51489777 7.50000000 
45.26099872 52.29500208 7.50000000 
45.95603862 51.05905514 7.50000000 
45.23319712 49.83915945 7.50000000 
45.92823703 48.60321250 7.50000000 
45.20539552 47.38331681 7.50000000 
45.90043543 46.14736986 7.50000000 
45.17759393 44.92747417 7.50000000 
45.87263383 43.69152722 7.50000000 
45.14979233 42.47163153 7.50000000 
45.84483224 41.23568458 7.50000000 
45.12199073 40.01578889 7.50000000 
45.81703064 38.77984194 7.50000000 
45.09418914 37.55994625 7.50000000 
45.78922904 36.32399930 7.50000000 
45.06638754 35.10410361 7.50000000 
45.76142745 33.86815666 7.50000000 
45.03858594 32.64826097 7.50000000 
45.73362585 31.41231402 7.50000000 
45.01078435 30.19241833 7.50000000 
45.70582425 28.95647138 7.50000000 
44.98298275 27.73657569 7.50000000 
45.67802266 26.50062874 7.50000000 
44.95518115 25.28073305 7.50000000 
45.65022106 24.04478610 7.50000000 
44.92737956 22.82489041 7.50000000 
45.62241946 21.58894346 7.50000000 
44.89957796 20.36904777 7.50000000 
45.59461787 19.13310082 7.50000000 
44.87177636 17.91320513 7.50000000 
45.56681627 16.67725818 7.50000000 
44.84397477 15.45736249 7.50000000 
45.53901467 14.22141554 7.50000000 
44.81617317 13.00151985 7.50000000 
45.51121308 11.76557290 7.50000000 
44.78837157 10.54567721 7.50000000 
45.48341148 9.30973026 7.50000000 
44.76056998 8.08983457 7.50000000 
45.45560988 6.85388762 7.50000000 
44.73276838 5.63399193 7.50000000 
45.42780829 4.39804498 7.50000000 
44.70496678 3.17814929 7.50000000 
45.40000669 1.94220234 7.50000000 
44.67716519 0.72230665 7.50000000 
48.43038070 81.73301124 7.50000000 
47.70753919 80.51311555 7.50000000 
48.40257910 79.27716860 7.50000000 
47.67973760 78.05727291 7.50000000 
48.37477750 76.82132596 7.50000000 
47.65193600 75.60143027 7.50000000 
48.34697591 74.36548332 7.50000000 
47.62413440 73.14558763 7.50000000 
48.31917431 71.90964068 7.50000000 
47.59633281 70.68974499 7.50000000 
48.29137271 69.45379804 7.50000000 
47.56853121 68.23390235 7.50000000 
48.26357112 66.99795540 7.50000000 
47.54072961 65.77805971 7.50000000 
48.23576952 64.54211276 7.50000000 
47.51292802 63.32221707 7.50000000 
48.20796792 62.08627013 7.50000000 
47.48512642 60.86637443 7.50000000 
48.18016633 59.63042749 7.50000000 
47.45732482 58.41053180 7.50000000 
48.15236473 57.17458485 7.50000000 
47.42952323 55.95468916 7.50000000 
48.12456313 54.71874221 7.50000000 
47.40172163 53.49884652 7.50000000 
48.09676154 52.26289957 7.50000000 
47.37392003 51.04300388 7.50000000 
48.06895994 49.80705693 7.50000000 
47.34611844 48.58716124 7.50000000 
48.04115834 47.35121429 7.50000000 
47.31831684 46.13131860 7.50000000 
48.01335675 44.89537165 7.50000000 
47.29051524 43.67547596 7.50000000 
47.98555515 42.43952901 7.50000000 
47.26271365 41.21963332 7.50000000 
47.95775355 39.98368637 7.50000000 
47.23491205 38.76379068 7.50000000 
47.92995196 37.52784373 7.50000000 
47.20711045 36.30794804 7.50000000 
47.90215036 35.07200109 7.50000000 
47.17930886 33.85210540 7.50000000 
47.87434876 32.61615845 7.50000000 
47.15150726 31.39626276 7.50000000 
47.84654717 30.16031581 7.50000000 
47.12370566 28.94042012 7.50000000 
47.81874557 27.70447317 7.50000000 
47.09590407 26.48457748 7.50000000 
47.79094397 25.24863053 7.50000000 
47.06810247 24.02873484 7.50000000 
47.76314238 22.79278789 7.50000000 
47.04030087 21.57289220 7.50000000 
47.73534078 20.33694525 7.50000000 
47.01249928 19.11704956 7.50000000 
47.70753918 17.88110261 7.50000000 
46.98469768 16.66120692 7.50000000 
47.67973759 15.42525997 7.50000000 
46.95689608 14.20536428 7.50000000 
47.65193599 12.96941733 7.50000000 
46.92909449 11.74952164 7.50000000 
47.62413439 10.51357469 7.50000000 
46.90129289 9.29367900 7.50000000 
47.59633280 8.05773205 7.50000000 
46.87349129 6.83783636 7.50000000 
47.56853120 5.60188941 7.50000000 
46.84568970 4.38199372 7.50000000 
47.54072960 3.14604677 7.50000000 
46.81788810 1.92615108 7.50000000 
47.51292800 0.69020413 7.50000000 
50.59890521 85.39269831 7.50000000 
49.87606370 84.17280262 7.50000000 
50.57110361 82.93685567 7.50000000 
49.84826211 81.71695998 7.50000000 
50.54330201 80.48101303 7.50000000 
49.82046051 79.26111734 7.50000000 
50.51550042 78.02517039 7.50000000 
49.79265891 76.80527470 7.50000000 
50.48769882 75.56932775 7.50000000 
49.76485732 74.34943206 7.50000000 
50.45989722 73.11348511 7.50000000 
49.73705572 71.89358942 7.50000000 
50.43209563 70.65764248 7.50000000 
49.70925412 69.43774678 7.50000000 
50.40429403 68.20179984 7.50000000 
49.68145253 66.98190415 7.50000000 
50.37649243 65.74595720 7.50000000 
49.65365093 64.52606151 7.50000000 
50.34869084 63.29011456 7.50000000 
49.62584933 62.07021887 7.50000000 
50.32088924 60.83427192 7.50000000 
49.59804774 59.61437623 7.50000000 
50.29308764 58.37842928 7.50000000 
49.57024614 57.15853359 7.50000000 
50.26528605 55.92258664 7.50000000 
49.54244454 54.70269095 7.50000000 
50.23748445 53.46674400 7.50000000 
49.51464295 52.24684831 7.50000000 
50.20968285 51.01090136 7.50000000 
49.48684135 49.79100567 7.50000000 
50.18188125 48.55505872 7.50000000 
49.45903975 47.33516303 7.50000000 
50.15407966 46.09921608 7.50000000 
49.43123816 44.87932039 7.50000000 
50.12627806 43.64337344 7.50000000 
49.40343656 42.42347775 7.50000000 
50.09847646 41.18753080 7.50000000 
49.37563496 39.96763511 7.50000000 
50.07067487 38.73168816 7.50000000 
49.34783337 37.51179247 7.50000000 
50.04287327 36.27584552 7.50000000 
49.32003177 35.05594983 7.50000000 
50.01507167 33.82000288 7.50000000 
49.29223017 32.60010719 7.50000000 
49.98727008 31.36416024 7.50000000 
49.26442857 30.14426455 7.50000000 
49.95946848 28.90831760 7.50000000 
49.23662698 27.68842191 7.50000000 
49.93166688 26.45247496 7.50000000 
49.20882538 25.23257927 7.50000000 
49.90386529 23.99663232 7.50000000 