file written by TR
1.000000
134.003998 0.000000 0.000000
67.001999 116.050866 0.000000
0.000000 0.000000 15.000000
Type1
11908
Cartesian
0.720000 1.221000 3.000000
0.000000 0.000000 3.000000
2.881000 4.886000 3.000000
2.161000 3.664000 3.000000
2.858000 2.430000 3.000000
2.138000 1.208000 3.000000
5.041000 8.550000 3.000000
4.321000 7.329000 3.000000
5.019000 6.094000 3.000000
4.299000 4.873000 3.000000
4.996000 3.638000 3.000000
4.276000 2.417000 3.000000
4.974000 1.182000 3.000000
7.202000 12.215000 3.000000
6.482000 10.993000 3.000000
7.180000 9.759000 3.000000
6.459000 8.537000 3.000000
7.157000 7.303000 3.000000
6.437000 6.081000 3.000000
7.135000 4.847000 3.000000
6.414000 3.625000 3.000000
7.112000 2.391000 3.000000
6.392000 1.169000 3.000000
9.363000 15.879000 3.000000
8.643000 14.657000 3.000000
9.340000 13.423000 3.000000
8.620000 12.202000 3.000000
9.318000 10.967000 3.000000
8.598000 9.746000 3.000000
9.295000 8.511000 3.000000
8.575000 7.290000 3.000000
9.273000 6.055000 3.000000
8.552000 4.834000 3.000000
9.250000 3.599000 3.000000
8.530000 2.378000 3.000000
9.228000 1.143000 3.000000
11.523000 19.542999 3.000000
10.803000 18.322001 3.000000
11.501000 17.087000 3.000000
10.781000 15.866000 3.000000
11.478000 14.631000 3.000000
10.758000 13.410000 3.000000
11.456000 12.176000 3.000000
10.736000 10.954001 3.000000
11.433000 9.720000 3.000000
10.713000 8.498000 3.000000
11.411000 7.264000 3.000000
10.691000 6.042000 3.000000
11.387999 4.808000 3.000000
10.668000 3.586000 3.000000
11.366000 2.352000 3.000000
10.646000 1.130000 3.000000
13.684000 23.208000 3.000000
12.964000 21.986000 3.000000
13.661000 20.752001 3.000000
12.941000 19.530001 3.000000
13.639000 18.296000 3.000000
12.919000 17.073999 3.000000
13.616000 15.840000 3.000000
12.896000 14.618000 3.000000
13.594000 13.384000 3.000000
12.874000 12.163000 3.000000
13.571000 10.928001 3.000000
12.851000 9.707000 3.000000
13.549000 8.472000 3.000000
12.829000 7.251000 3.000000
13.526000 6.016000 3.000000
12.806000 4.795000 3.000000
13.504000 3.560000 3.000000
12.784000 2.339000 3.000000
13.481000 1.105000 3.000000
15.845000 26.872000 3.000000
15.124000 25.650000 3.000000
15.822000 24.416000 3.000000
15.102000 23.195000 3.000000
15.800000 21.959999 3.000000
15.079000 20.739000 3.000000
15.777000 19.504000 3.000000
15.057000 18.283001 3.000000
15.755000 17.048000 3.000000
15.034000 15.827000 3.000000
15.732000 14.592000 3.000000
15.012000 13.371000 3.000000
15.710000 12.137000 3.000000
14.989000 10.915000 3.000000
15.687000 9.681000 3.000000
14.967000 8.459000 3.000000
15.665000 7.225000 3.000000
14.944000 6.003000 3.000000
15.642000 4.769000 3.000000
14.922000 3.547000 3.000000
15.620000 2.313000 3.000000
14.899000 1.092000 3.000000
18.004999 30.535999 3.000000
17.285000 29.315001 3.000000
17.983000 28.080000 3.000000
17.263001 26.858999 3.000000
17.959999 25.624001 3.000000
17.240000 24.403000 3.000000
17.938000 23.169001 3.000000
17.218000 21.947001 3.000000
17.915001 20.712999 3.000000
17.195000 19.490999 3.000000
17.893000 18.257000 3.000000
17.172001 17.035000 3.000000
17.870001 15.801000 3.000000
17.150000 14.579000 3.000000
17.848000 13.345000 3.000000
17.127001 12.124000 3.000000
17.825001 10.889000 3.000000
17.105000 9.668000 3.000000
17.802999 8.433000 3.000000
17.082001 7.212000 3.000000
17.780001 5.977000 3.000000
17.059999 4.756000 3.000000
17.757999 3.521000 3.000000
17.037001 2.300000 3.000000
17.735001 1.066000 3.000000
20.166000 34.201000 3.000000
19.445999 32.979000 3.000000
20.143000 31.745001 3.000000
19.423000 30.523001 3.000000
20.121000 29.289000 3.000000
19.400999 28.066999 3.000000
20.098000 26.833000 3.000000
19.378000 25.611000 3.000000
20.076000 24.377001 3.000000
19.356001 23.156000 3.000000
20.052999 21.921000 3.000000
19.333000 20.700001 3.000000
20.031000 19.465000 3.000000
19.311001 18.244000 3.000000
20.007999 17.009001 3.000000
19.288000 15.788000 3.000000
19.986000 14.553000 3.000000
19.266001 13.332000 3.000000
19.962999 12.098000 3.000000
19.243000 10.876000 3.000000
19.941000 9.642000 3.000000
19.221001 8.420000 3.000000
19.917999 7.186000 3.000000
19.198000 5.964000 3.000000
19.896000 4.730000 3.000000
19.176001 3.508000 3.000000
19.872999 2.274000 3.000000
19.153000 1.053000 3.000000
22.326000 37.865002 3.000000
21.606001 36.644001 3.000000
22.304001 35.409000 3.000000
21.584000 34.188000 3.000000
22.281000 32.952999 3.000000
21.561001 31.732000 3.000000
22.259001 30.497000 3.000000
21.539000 29.275999 3.000000
22.236000 28.041000 3.000000
21.516001 26.820000 3.000000
22.214001 25.586001 3.000000
21.494000 24.364000 3.000000
22.191000 23.129999 3.000000
21.471001 21.908001 3.000000
22.169001 20.674000 3.000000
21.448999 19.452000 3.000000
22.146000 18.218000 3.000000
21.426001 16.996000 3.000000
22.124001 15.762000 3.000000
21.403999 14.540000 3.000000
22.101000 13.306000 3.000000
21.381000 12.085000 3.000000
22.079000 10.850000 3.000000
21.358999 9.629000 3.000000
22.056000 8.394000 3.000000
21.336001 7.173000 3.000000
22.034000 5.938000 3.000000
21.313999 4.717000 3.000000
22.011000 3.482000 3.000000
21.291000 2.261000 3.000000
21.989000 1.027000 3.000000
24.486999 41.528999 3.000000
23.767000 40.307999 3.000000
24.465000 39.073002 3.000000
23.744000 37.852001 3.000000
24.442000 36.618000 3.000000
23.722000 35.396000 3.000000
24.420000 34.161999 3.000000
23.698999 32.939999 3.000000
24.396999 31.705999 3.000000
23.677000 30.483999 3.000000
24.375000 29.250000 3.000000
23.653999 28.028000 3.000000
24.351999 26.794001 3.000000
23.632000 25.573000 3.000000
24.330000 24.337999 3.000000
23.608999 23.117001 3.000000
24.306999 21.882000 3.000000
23.587000 20.660999 3.000000
24.285000 19.426001 3.000000
23.563999 18.205000 3.000000
24.261999 16.969999 3.000000
23.542000 15.749000 3.000000
24.240000 14.514000 3.000000
23.518999 13.293000 3.000000
24.216999 12.059000 3.000000
23.497000 10.837000 3.000000
24.195000 9.603000 3.000000
23.474001 8.381000 3.000000
24.172001 7.147000 3.000000
23.452000 5.925000 3.000000
24.150000 4.691000 3.000000
23.429001 3.469000 3.000000
24.127001 2.235000 3.000000
23.407000 1.014000 3.000000
26.648001 45.194000 3.000000
25.928000 43.972000 3.000000
26.625000 42.737999 3.000000
25.905001 41.515999 3.000000
26.603001 40.282001 3.000000
25.882999 39.060001 3.000000
26.580000 37.826000 3.000000
25.860001 36.605000 3.000000
26.558001 35.369999 3.000000
25.837999 34.148998 3.000000
26.535000 32.914002 3.000000
25.815001 31.693001 3.000000
26.513001 30.458000 3.000000
25.792999 29.236999 3.000000
26.490000 28.002001 3.000000
25.770000 26.781000 3.000000
26.468000 25.547001 3.000000
25.747000 24.325001 3.000000
26.445000 23.091000 3.000000
25.725000 21.869000 3.000000
26.423000 20.635000 3.000000
25.702000 19.413000 3.000000
26.400000 18.179001 3.000000
25.680000 16.957001 3.000000
26.378000 15.723000 3.000000
25.657000 14.501000 3.000000
26.355000 13.267000 3.000000
25.635000 12.046000 3.000000
26.333000 10.811000 3.000000
25.611999 9.590000 3.000000
26.309999 8.355000 3.000000
25.590000 7.134000 3.000000
26.288000 5.899000 3.000000
25.567000 4.678000 3.000000
26.264999 3.443000 3.000000
25.545000 2.222000 3.000000
26.243000 0.988000 3.000000
28.808001 48.858002 3.000000
28.087999 47.637001 3.000000
28.785999 46.402000 3.000000
28.066000 45.181000 3.000000
28.763001 43.945999 3.000000
28.042999 42.724998 3.000000
28.740999 41.490002 3.000000
28.021000 40.269001 3.000000
28.718000 39.034000 3.000000
27.997999 37.813000 3.000000
28.695999 36.578999 3.000000
27.976000 35.356999 3.000000
28.673000 34.123001 3.000000
27.952999 32.901001 3.000000
28.650999 31.667000 3.000000
27.931000 30.445000 3.000000
28.628000 29.211001 3.000000
27.908001 27.989000 3.000000
28.606001 26.754999 3.000000
27.886000 25.534000 3.000000
28.583000 24.299000 3.000000
27.863001 23.077999 3.000000
28.561001 21.843000 3.000000
27.841000 20.622000 3.000000
28.538000 19.386999 3.000000
27.818001 18.166000 3.000000
28.516001 16.931000 3.000000
27.796000 15.710000 3.000000
28.493000 14.475000 3.000000
27.773001 13.254000 3.000000
28.471001 12.020001 3.000000
27.750999 10.798000 3.000000
28.448000 9.564000 3.000000
27.728001 8.342000 3.000000
28.426001 7.108000 3.000000
27.705999 5.886000 3.000000
28.403000 4.652000 3.000000
27.683001 3.430000 3.000000
28.381000 2.196000 3.000000
27.660999 0.975000 3.000000
30.969000 52.521999 3.000000
30.249001 51.300999 3.000000
30.947001 50.067001 3.000000
30.226000 48.845001 3.000000
30.924000 47.611000 3.000000
30.204000 46.389000 3.000000
30.900999 45.154999 3.000000
30.181000 43.932999 3.000000
30.879000 42.699001 3.000000
30.159000 41.477001 3.000000
30.856001 40.243000 3.000000
30.136000 39.021000 3.000000
30.834000 37.786999 3.000000
30.114000 36.566002 3.000000
30.811001 35.331001 3.000000
30.091000 34.110001 3.000000
30.789000 32.875000 3.000000
30.069000 31.653999 3.000000
30.766001 30.419001 3.000000
30.046000 29.198000 3.000000
30.744000 27.962999 3.000000
30.024000 26.742001 3.000000
30.721001 25.507999 3.000000
30.000999 24.285999 3.000000
30.698999 23.052000 3.000000
29.979000 21.830000 3.000000
30.676001 20.596001 3.000000
29.955999 19.374001 3.000000
30.653999 18.139999 3.000000
29.934000 16.917999 3.000000
30.631000 15.684000 3.000000
29.910999 14.463000 3.000000
30.608999 13.228000 3.000000
29.889000 12.007000 3.000000
30.586001 10.772000 3.000000
29.865999 9.551000 3.000000
30.563999 8.316000 3.000000
29.844000 7.095000 3.000000
30.541000 5.860000 3.000000
29.820999 4.639000 3.000000
30.518999 3.404000 3.000000
29.799000 2.183000 3.000000
30.496000 0.949000 3.000000
33.130001 56.187000 3.000000
32.409000 54.965000 3.000000
33.106998 53.730999 3.000000
32.387001 52.508999 3.000000
33.084999 51.275002 3.000000
32.363998 50.054001 3.000000
33.062000 48.819000 3.000000
32.341999 47.598000 3.000000
33.040001 46.362999 3.000000
32.319000 45.141998 3.000000
33.016998 43.907002 3.000000
32.297001 42.686001 3.000000
32.994999 41.451000 3.000000
32.273998 40.230000 3.000000
32.972000 38.994999 3.000000
32.251999 37.773998 3.000000
32.950001 36.540001 3.000000
32.229000 35.318001 3.000000
32.926998 34.084000 3.000000
32.207001 32.862000 3.000000
32.904999 31.628000 3.000000
32.183998 30.406000 3.000000
32.882000 29.172001 3.000000
32.161999 27.950001 3.000000
32.860001 26.716000 3.000000
32.139000 25.495001 3.000000
32.837002 24.260000 3.000000
32.117001 23.039000 3.000000
32.814999 21.804001 3.000000
32.094002 20.583000 3.000000
32.792000 19.348000 3.000000
32.071999 18.127001 3.000000
32.770001 16.892000 3.000000
32.049000 15.671000 3.000000
32.747002 14.437000 3.000000
32.027000 13.215000 3.000000
32.724998 11.981000 3.000000
32.004002 10.759000 3.000000
32.702000 9.525000 3.000000
31.982000 8.303000 3.000000
32.680000 7.069000 3.000000
31.959000 5.847000 3.000000
32.657001 4.613000 3.000000
31.937000 3.391000 3.000000
32.633999 2.157000 3.000000
31.914000 0.936000 3.000000
35.290001 59.851002 3.000000
34.570000 58.630001 3.000000
35.268002 57.395001 3.000000
34.548000 56.174000 3.000000
35.244999 54.938999 3.000000
34.525002 53.717999 3.000000
35.223000 52.483002 3.000000
34.502998 51.262001 3.000000
35.200001 50.028000 3.000000
34.480000 48.806000 3.000000
35.178001 47.571999 3.000000
34.458000 46.349998 3.000000
35.154999 45.116001 3.000000
34.435001 43.894001 3.000000
35.132999 42.660000 3.000000
34.412998 41.438000 3.000000
35.110001 40.203999 3.000000
34.389999 38.981998 3.000000
35.088001 37.748001 3.000000
34.368000 36.527000 3.000000
35.064999 35.292000 3.000000
34.345001 34.070999 3.000000
35.042999 32.835999 3.000000
34.321999 31.615000 3.000000
35.020001 30.379999 3.000000
34.299999 29.159000 3.000000
34.998001 27.924000 3.000000
34.277000 26.702999 3.000000
34.974999 25.469000 3.000000
34.255001 24.247000 3.000000
34.952999 23.013001 3.000000
34.231999 21.791000 3.000000
34.930000 20.556999 3.000000
34.209999 19.334999 3.000000
34.908001 18.101000 3.000000
34.187000 16.879000 3.000000
34.884998 15.645001 3.000000
34.165001 14.424000 3.000000
34.862999 13.189000 3.000000
34.141998 11.968000 3.000000
34.840000 10.733000 3.000000
34.119999 9.512000 3.000000
34.818001 8.277000 3.000000
34.097000 7.056000 3.000000
34.794998 5.821000 3.000000
34.075001 4.600000 3.000000
34.772999 3.365000 3.000000
34.051998 2.144000 3.000000
34.750000 0.910000 3.000000
37.451000 63.514999 3.000000
36.730999 62.293999 3.000000
37.428001 61.060001 3.000000
36.708000 59.838001 3.000000
37.405998 58.604000 3.000000
36.686001 57.382000 3.000000
37.382999 56.147999 3.000000
36.662998 54.925999 3.000000
37.361000 53.692001 3.000000
36.640999 52.470001 3.000000
37.338001 51.236000 3.000000
36.618000 50.014999 3.000000
37.316002 48.779999 3.000000
36.596001 47.558998 3.000000
37.292999 46.324001 3.000000
36.573002 45.103001 3.000000
37.271000 43.868000 3.000000
36.550999 42.646999 3.000000
37.248001 41.411999 3.000000
36.528000 40.191002 3.000000
37.226002 38.957001 3.000000
36.506000 37.735001 3.000000
37.202999 36.500999 3.000000
36.483002 35.278999 3.000000
37.181000 34.044998 3.000000
36.460999 32.823002 3.000000
37.158001 31.589001 3.000000
36.438000 30.367001 3.000000
37.136002 29.132999 3.000000
36.416000 27.910999 3.000000
37.112999 26.677000 3.000000
36.393002 25.455999 3.000000
37.091000 24.221001 3.000000
36.370998 23.000000 3.000000
37.068001 21.764999 3.000000
36.348000 20.544001 3.000000
37.046001 19.309000 3.000000
36.326000 18.087999 3.000000
37.022999 16.853001 3.000000
36.303001 15.632000 3.000000
37.000999 14.398000 3.000000
36.280998 13.176000 3.000000
36.978001 11.942000 3.000000
36.257999 10.720000 3.000000
36.956001 9.486000 3.000000
36.236000 8.264000 3.000000
36.932999 7.030000 3.000000
36.213001 5.808000 3.000000
36.910999 4.574000 3.000000
36.191002 3.352000 3.000000
36.888001 2.118000 3.000000
36.167999 0.897000 3.000000
39.612000 67.180000 3.000000
38.890999 65.958000 3.000000
39.589001 64.723999 3.000000
38.869000 63.501999 3.000000
39.567001 62.268002 3.000000
38.846001 61.047001 3.000000
39.543999 59.812000 3.000000
38.824001 58.591000 3.000000
39.521999 57.355999 3.000000
38.800999 56.134998 3.000000
39.499001 54.900002 3.000000
38.778999 53.679001 3.000000
39.476002 52.444000 3.000000
38.756000 51.223000 3.000000
39.453999 49.988998 3.000000
38.734001 48.766998 3.000000
39.431000 47.533001 3.000000
38.710999 46.311001 3.000000
39.409000 45.077000 3.000000
38.688999 43.855000 3.000000
39.386002 42.620998 3.000000
38.666000 41.398998 3.000000
39.363998 40.165001 3.000000
38.644001 38.944000 3.000000
39.341000 37.709000 3.000000
38.620998 36.487999 3.000000
39.319000 35.252998 3.000000
38.598999 34.032001 3.000000
39.296001 32.797001 3.000000
38.576000 31.576000 3.000000
39.273998 30.341000 3.000000
38.554001 29.120001 3.000000
39.250999 27.885000 3.000000
38.530998 26.664000 3.000000
39.229000 25.430000 3.000000
38.508999 24.208000 3.000000
39.206001 22.974001 3.000000
38.486000 21.752001 3.000000
39.183998 20.518000 3.000000
38.464001 19.296000 3.000000
39.160999 18.062000 3.000000
38.441002 16.840000 3.000000
39.139000 15.606000 3.000000
38.418999 14.385000 3.000000
39.116001 13.150000 3.000000
38.396000 11.929000 3.000000
39.094002 10.694000 3.000000
38.374001 9.473000 3.000000
39.070999 8.238000 3.000000
38.351002 7.017000 3.000000
39.049000 5.782000 3.000000
38.328999 4.561000 3.000000
39.026001 3.327000 3.000000
38.306000 2.105000 3.000000
39.004002 0.871000 3.000000
41.771999 70.844002 3.000000
41.051998 69.623001 3.000000
41.750000 68.388001 3.000000
41.028999 67.167000 3.000000
41.727001 65.931999 3.000000
41.007000 64.710999 3.000000
41.705002 63.476002 3.000000
40.984001 62.255001 3.000000
41.681999 61.021000 3.000000
40.962002 59.799000 3.000000
41.660000 58.564999 3.000000
40.938999 57.342999 3.000000
41.637001 56.109001 3.000000
40.917000 54.887001 3.000000
41.615002 53.653000 3.000000
40.894001 52.431000 3.000000
41.591999 51.196999 3.000000
40.872002 49.976002 3.000000
41.570000 48.741001 3.000000
40.848999 47.520001 3.000000
41.547001 46.285000 3.000000
40.827000 45.063999 3.000000
41.525002 43.828999 3.000000
40.804001 42.608002 3.000000
41.501999 41.373001 3.000000
40.782001 40.152000 3.000000
41.480000 38.917999 3.000000
40.758999 37.695999 3.000000
41.457001 36.462002 3.000000
40.737000 35.240002 3.000000
41.435001 34.006000 3.000000
40.714001 32.784000 3.000000
41.411999 31.549999 3.000000
40.692001 30.327999 3.000000
41.389999 29.094000 3.000000
40.668999 27.872000 3.000000
41.367001 26.638001 3.000000
40.646999 25.417000 3.000000
41.345001 24.181999 3.000000
40.624001 22.961000 3.000000
41.321999 21.726000 3.000000
40.602001 20.504999 3.000000
41.299999 19.270000 3.000000
40.578999 18.049000 3.000000
41.277000 16.813999 3.000000
40.556999 15.593000 3.000000
41.255001 14.359000 3.000000
40.534000 13.137000 3.000000
41.231999 11.903000 3.000000
40.512001 10.681000 3.000000
41.209000 9.447000 3.000000
40.488998 8.225000 3.000000
41.187000 6.991000 3.000000
40.466999 5.769000 3.000000
41.164001 4.535000 3.000000
40.444000 3.314000 3.000000
41.141998 2.079000 3.000000
40.422001 0.858000 3.000000
43.932999 74.509003 3.000000
43.213001 73.287003 3.000000
43.910000 72.053001 3.000000
43.189999 70.831001 3.000000
43.888001 69.597000 3.000000
43.167999 68.375000 3.000000
43.865002 67.140999 3.000000
43.145001 65.918999 3.000000
43.842999 64.684998 3.000000
43.123001 63.463001 3.000000
43.820000 62.229000 3.000000
43.099998 61.007999 3.000000
43.798000 59.772999 3.000000
43.077999 58.551998 3.000000
43.775002 57.317001 3.000000
43.055000 56.096001 3.000000
43.752998 54.861000 3.000000
43.033001 53.639999 3.000000
43.730000 52.404999 3.000000
43.009998 51.183998 3.000000
43.708000 49.950001 3.000000
42.987999 48.728001 3.000000
43.685001 47.494000 3.000000
42.965000 46.271999 3.000000
43.662998 45.037998 3.000000
42.942001 43.816002 3.000000
43.639999 42.582001 3.000000
42.919998 41.360001 3.000000
43.618000 40.125999 3.000000
42.896999 38.904999 3.000000
43.595001 37.669998 3.000000
42.875000 36.449001 3.000000
43.573002 35.214001 3.000000
42.852001 33.993000 3.000000
43.549999 32.757999 3.000000
42.830002 31.537001 3.000000
43.528000 30.302000 3.000000
42.806999 29.080999 3.000000
43.505001 27.846001 3.000000
42.785000 26.625000 3.000000
43.483002 25.391001 3.000000
42.762001 24.169001 3.000000
43.459999 22.935000 3.000000
42.740002 21.712999 3.000000
43.438000 20.479000 3.000000
42.716999 19.257000 3.000000
43.415001 18.023001 3.000000
42.695000 16.801001 3.000000
43.393002 15.567000 3.000000
42.672001 14.346000 3.000000
43.369999 13.111000 3.000000
42.650002 11.890000 3.000000
43.348000 10.655000 3.000000
42.626999 9.434000 3.000000
43.325001 8.199000 3.000000
42.605000 6.978000 3.000000
43.303001 5.743000 3.000000
42.582001 4.522000 3.000000
43.279999 3.288000 3.000000
42.560001 2.066000 3.000000
43.257999 0.832000 3.000000
46.092999 78.172996 3.000000
45.373001 76.950996 3.000000
46.070999 75.717003 3.000000
45.351002 74.496002 3.000000
46.048000 73.261002 3.000000
45.327999 72.040001 3.000000
46.026001 70.805000 3.000000
45.306000 69.584000 3.000000
46.002998 68.348999 3.000000
45.283001 67.127998 3.000000
45.980999 65.892998 3.000000
45.261002 64.671997 3.000000
45.958000 63.438000 3.000000
45.237999 62.216000 3.000000
45.936001 60.981998 3.000000
45.216000 59.759998 3.000000
45.912998 58.526001 3.000000
45.193001 57.304001 3.000000
45.890999 56.070000 3.000000
45.171001 54.848000 3.000000
45.868000 53.613998 3.000000
45.147999 52.391998 3.000000
45.846001 51.158001 3.000000
45.125999 49.937000 3.000000
45.823002 48.702000 3.000000
45.103001 47.480999 3.000000
45.800999 46.245998 3.000000
45.081001 45.025002 3.000000
45.778000 43.790001 3.000000
45.057999 42.569000 3.000000
45.756000 41.334000 3.000000
45.035999 40.112999 3.000000
45.733002 38.879002 3.000000
45.013000 37.657001 3.000000
45.710999 36.423000 3.000000
44.991001 35.201000 3.000000
45.688000 33.966999 3.000000
44.967999 32.744999 3.000000
45.666000 31.511000 3.000000
44.945999 30.289000 3.000000
45.643002 29.055000 3.000000
44.923000 27.833000 3.000000
45.620998 26.599001 3.000000
44.901001 25.378000 3.000000
45.598000 24.143000 3.000000
44.877998 22.922001 3.000000
45.576000 21.687000 3.000000
44.855999 20.466000 3.000000
45.553001 19.231001 3.000000
44.833000 18.010000 3.000000
45.530998 16.775000 3.000000
44.811001 15.554000 3.000000
45.507999 14.320000 3.000000
44.787998 13.098000 3.000000
45.486000 11.864000 3.000000
44.765999 10.642000 3.000000
45.463001 9.408000 3.000000
44.743000 8.186000 3.000000
45.441002 6.952000 3.000000
44.721001 5.730000 3.000000
45.417999 4.496000 3.000000
44.698002 3.275000 3.000000
45.396000 2.040000 3.000000
44.675999 0.819000 3.000000
48.254002 81.836998 3.000000
47.534000 80.615997 3.000000
48.231999 79.380997 3.000000
47.511002 78.160004 3.000000
48.209000 76.925003 3.000000
47.488998 75.704002 3.000000
48.187000 74.470001 3.000000
47.466000 73.248001 3.000000
48.164001 72.014000 3.000000
47.444000 70.792000 3.000000
48.141998 69.557999 3.000000
47.421002 68.335999 3.000000
48.119000 67.101997 3.000000
47.398998 65.879997 3.000000
48.096001 64.646004 3.000000
47.375999 63.424999 3.000000
48.074001 62.189999 3.000000
47.354000 60.969002 3.000000
48.050999 59.734001 3.000000
47.331001 58.513000 3.000000
48.028999 57.278000 3.000000
47.308998 56.056999 3.000000
48.006000 54.821999 3.000000
47.285999 53.601002 3.000000
47.984001 52.366001 3.000000
47.264000 51.145001 3.000000
47.960999 49.910999 3.000000
47.241001 48.688999 3.000000
47.938999 47.455002 3.000000
47.219002 46.233002 3.000000
47.916000 44.999001 3.000000
47.195999 43.777000 3.000000
47.894001 42.542999 3.000000
47.174000 41.320999 3.000000
47.870998 40.087002 3.000000
47.151001 38.866001 3.000000
47.848999 37.631000 3.000000
47.129002 36.410000 3.000000
47.826000 35.174999 3.000000
47.105999 33.953999 3.000000
47.804001 32.719002 3.000000
47.084000 31.497999 3.000000
47.780998 30.263001 3.000000
47.061001 29.042000 3.000000
47.758999 27.808001 3.000000
47.039001 26.586001 3.000000
47.736000 25.351999 3.000000
47.015999 24.129999 3.000000
47.714001 22.896000 3.000000
46.994000 21.674000 3.000000
47.691002 20.440001 3.000000
46.971001 19.218000 3.000000
47.668999 17.983999 3.000000
46.949001 16.761999 3.000000
47.646000 15.528000 3.000000
46.925999 14.307000 3.000000
47.624001 13.072000 3.000000
46.903999 11.851000 3.000000
47.601002 10.616000 3.000000
46.881001 9.395001 3.000000
47.578999 8.160000 3.000000
46.859001 6.939000 3.000000
47.556000 5.704000 3.000000
46.835999 4.483000 3.000000
47.534000 3.249000 3.000000
46.813999 2.027000 3.000000
47.511002 0.793000 3.000000
50.415001 85.501999 3.000000
49.694000 84.279999 3.000000
50.391998 83.045998 3.000000
49.672001 81.823998 3.000000
50.369999 80.589996 3.000000
49.648998 79.367996 3.000000
50.347000 78.134003 3.000000
49.626999 76.912003 3.000000
50.325001 75.678001 3.000000
49.604000 74.457001 3.000000
50.301998 73.222000 3.000000
49.582001 72.001000 3.000000
50.279999 70.765999 3.000000
49.558998 69.544998 3.000000
50.257000 68.309998 3.000000
49.536999 67.088997 3.000000
50.235001 65.853996 3.000000
49.514000 64.633003 3.000000
50.212002 63.398998 3.000000
49.492001 62.176998 3.000000
50.189999 60.943001 3.000000
49.469002 59.721001 3.000000
50.167000 58.487000 3.000000
49.446999 57.264999 3.000000
50.145001 56.030998 3.000000
49.424000 54.808998 3.000000
50.122002 53.575001 3.000000
49.402000 52.353001 3.000000
50.099998 51.119000 3.000000
49.379002 49.897999 3.000000
50.077000 48.662998 3.000000
49.356999 47.442001 3.000000
50.055000 46.207001 3.000000
49.334000 44.986000 3.000000
50.032001 43.750999 3.000000
49.312000 42.529999 3.000000
50.009998 41.294998 3.000000
49.289001 40.074001 3.000000
49.987000 38.840000 3.000000
49.266998 37.618000 3.000000
49.965000 36.383999 3.000000
49.244000 35.161999 3.000000
49.942001 33.928001 3.000000
49.222000 32.706001 3.000000
49.919998 31.472000 3.000000
49.199001 30.250000 3.000000
49.896999 29.016001 3.000000
49.176998 27.795000 3.000000
49.875000 26.559999 3.000000
49.153999 25.339001 3.000000
49.852001 24.104000 3.000000
49.132000 22.882999 3.000000
49.830002 21.648001 3.000000
49.109001 20.427000 3.000000
49.806999 19.191999 3.000000
49.087002 17.971001 3.000000
49.784000 16.736000 3.000000
49.063999 15.515000 3.000000
49.762001 14.281000 3.000000
49.042000 13.059000 3.000000
49.738998 11.825000 3.000000
49.019001 10.603000 3.000000
49.716999 9.369000 3.000000
48.997002 8.147000 3.000000
49.694000 6.913000 3.000000
48.973999 5.691000 3.000000
49.672001 4.457000 3.000000
48.952000 3.236000 3.000000
49.648998 2.001000 3.000000
48.929001 0.780000 3.000000
52.575001 89.166000 3.000000
51.855000 87.944000 3.000000
52.553001 86.709999 3.000000
51.833000 85.488998 3.000000
52.529999 84.253998 3.000000
51.810001 83.032997 3.000000
52.507999 81.797996 3.000000
51.787998 80.577004 3.000000
52.485001 79.342003 3.000000
51.764999 78.121002 3.000000
52.463001 76.886002 3.000000
51.743000 75.665001 3.000000
52.439999 74.431000 3.000000
51.720001 73.209000 3.000000
52.417999 71.974999 3.000000
51.698002 70.752998 3.000000
52.395001 69.518997 3.000000
51.674999 68.296997 3.000000
52.373001 67.063003 3.000000
51.653000 65.841003 3.000000
52.349998 64.607002 3.000000
51.630001 63.386002 3.000000
52.327999 62.151001 3.000000
51.608002 60.930000 3.000000
52.305000 59.695000 3.000000
51.584999 58.473999 3.000000
52.283001 57.238998 3.000000
51.563000 56.018002 3.000000
52.259998 54.783001 3.000000
51.540001 53.562000 3.000000
52.237999 52.327000 3.000000
51.516998 51.105999 3.000000
52.215000 49.872002 3.000000
51.494999 48.650002 3.000000
52.193001 47.416000 3.000000
51.472000 46.194000 3.000000
52.169998 44.959999 3.000000
51.450001 43.737999 3.000000
52.147999 42.504002 3.000000
51.426998 41.282001 3.000000
52.125000 40.048000 3.000000
51.404999 38.827000 3.000000
52.103001 37.591999 3.000000
51.382000 36.370998 3.000000
52.080002 35.136002 3.000000
51.360001 33.915001 3.000000
52.057999 32.680000 3.000000
51.337002 31.459000 3.000000
52.035000 30.224001 3.000000
51.314999 29.003000 3.000000
52.013000 27.768999 3.000000
51.292000 26.547001 3.000000
51.990002 25.313000 3.000000
51.270001 24.091000 3.000000
51.967999 22.857000 3.000000
51.247002 21.635000 3.000000
51.945000 20.400999 3.000000
51.224998 19.179001 3.000000
51.923000 17.945000 3.000000
51.202000 16.723000 3.000000
51.900002 15.489000 3.000000
51.180000 14.268000 3.000000
51.877998 13.033000 3.000000
51.157001 11.812000 3.000000
51.855000 10.577000 3.000000
51.134998 9.356000 3.000000
51.833000 8.121000 3.000000
51.112000 6.900000 3.000000
51.810001 5.665000 3.000000
51.090000 4.444000 3.000000
51.787998 3.210000 3.000000
51.067001 1.988000 3.000000
51.764999 0.754000 3.000000
54.736000 92.830002 3.000000
54.015999 91.609001 3.000000
54.713001 90.374001 3.000000
53.993000 89.153000 3.000000
54.691002 87.918999 3.000000
53.971001 86.696999 3.000000
54.667999 85.462998 3.000000
53.948002 84.240997 3.000000
54.646000 83.007004 3.000000
53.925999 81.785004 3.000000
54.623001 80.551002 3.000000
53.903000 79.329002 3.000000
54.601002 78.095001 3.000000
53.881001 76.873001 3.000000
54.577999 75.639000 3.000000
53.858002 74.417999 3.000000
54.556000 73.182999 3.000000
53.835999 71.961998 3.000000
54.533001 70.726997 3.000000
53.813000 69.505997 3.000000
54.511002 68.271004 3.000000
53.791000 67.050003 3.000000
54.487999 65.815003 3.000000
53.768002 64.594002 3.000000
54.466000 63.360001 3.000000
53.745998 62.138000 3.000000
54.443001 60.903999 3.000000
53.723000 59.681999 3.000000
54.421002 58.448002 3.000000
53.701000 57.226002 3.000000
54.397999 55.992001 3.000000
53.678001 54.770001 3.000000
54.375999 53.535999 3.000000
53.655998 52.314999 3.000000
54.353001 51.080002 3.000000
53.632999 49.859001 3.000000
54.331001 48.624001 3.000000
53.611000 47.403000 3.000000
54.307999 46.167999 3.000000
53.588001 44.946999 3.000000
54.285999 43.712002 3.000000
53.566002 42.491001 3.000000
54.263000 41.256000 3.000000
53.542999 40.035000 3.000000
54.241001 38.800999 3.000000
53.521000 37.578999 3.000000
54.217999 36.345001 3.000000
53.498001 35.123001 3.000000
54.195999 33.889000 3.000000
53.476002 32.667000 3.000000
54.173000 31.433001 3.000000
53.452999 30.211001 3.000000
54.151001 28.976999 3.000000
53.431000 27.756000 3.000000
54.127998 26.521000 3.000000
53.408001 25.299999 3.000000
54.105999 24.065001 3.000000
53.386002 22.844000 3.000000
54.083000 21.608999 3.000000
53.362999 20.388001 3.000000
54.061001 19.153000 3.000000
53.341000 17.931999 3.000000
54.037998 16.697001 3.000000
53.318001 15.476000 3.000000
54.015999 14.242000 3.000000
53.296001 13.020001 3.000000
53.993000 11.786000 3.000000
53.272999 10.564000 3.000000
53.971001 9.330000 3.000000
53.250000 8.108000 3.000000
53.948002 6.874000 3.000000
53.228001 5.652000 3.000000
53.925999 4.418000 3.000000
53.205002 3.197000 3.000000
53.903000 1.962000 3.000000
53.182999 0.741000 3.000000
56.896999 96.495003 3.000000
56.175999 95.273003 3.000000
56.874001 94.039001 3.000000
56.153999 92.817001 3.000000
56.852001 91.583000 3.000000
56.131000 90.361000 3.000000
56.828999 89.126999 3.000000
56.109001 87.905998 3.000000
56.806999 86.670998 3.000000
56.085999 85.449997 3.000000
56.784000 84.214996 3.000000
56.063999 82.994003 3.000000
56.762001 81.759003 3.000000
56.041000 80.538002 3.000000
56.738998 79.303001 3.000000
56.019001 78.082001 3.000000
56.716999 76.847000 3.000000
55.995998 75.626000 3.000000
56.694000 74.391998 3.000000
55.973999 73.169998 3.000000
56.671002 71.935997 3.000000
55.951000 70.713997 3.000000
56.648998 69.480003 3.000000
55.929001 68.258003 3.000000
56.625999 67.024002 3.000000
55.905998 65.802002 3.000000
56.604000 64.568001 3.000000
55.883999 63.347000 3.000000
56.581001 62.112000 3.000000
55.861000 60.890999 3.000000
56.558998 59.655998 3.000000
55.839001 58.435001 3.000000
56.535999 57.200001 3.000000
55.816002 55.979000 3.000000
56.514000 54.744000 3.000000