file written by TR
1.000000
278.634247 0.000000 0.000000
139.317123 241.304336 0.000000
0.000000 0.000000 15.000000
Type1
51484
Cartesian
0.714000 1.225000 3.000000
0.000000 0.000000 3.000000
2.858000 4.899000 3.000000
2.143000 3.675000 3.000000
2.847000 2.443000 3.000000
2.132000 1.219000 3.000000
5.001000 8.574000 3.000000
4.286000 7.349000 3.000000
4.990000 6.118000 3.000000
4.276000 4.893000 3.000000
4.979000 3.662000 3.000000
4.265000 2.437000 3.000000
4.968000 1.206000 3.000000
7.144000 12.249000 3.000000
6.430000 11.024000 3.000000
7.133000 9.793000 3.000000
6.419000 8.568000 3.000000
7.122000 7.337000 3.000000
6.408000 6.112000 3.000000
7.111000 4.881000 3.000000
6.397000 3.656000 3.000000
7.101000 2.425000 3.000000
6.386000 1.200000 3.000000
9.287000 15.923000 3.000000
8.573000 14.698000 3.000000
9.276000 13.467000 3.000000
8.562000 12.242000 3.000000
9.265000 11.011000 3.000000
8.551000 9.786000 3.000000
9.255000 8.555000 3.000000
8.540000 7.330000 3.000000
9.244000 6.099000 3.000000
8.529000 4.874000 3.000000
9.233000 3.643000 3.000000
8.519000 2.418000 3.000000
9.222000 1.187000 3.000000
11.430000 19.598000 3.000000
10.716000 18.372999 3.000000
11.419000 17.142000 3.000000
10.705000 15.917000 3.000000
11.409000 14.686000 3.000000
10.694000 13.461001 3.000000
11.398000 12.230000 3.000000
10.683000 11.005000 3.000000
11.387000 9.774000 3.000000
10.673000 8.549000 3.000000
11.376000 7.318000 3.000000
10.662000 6.093000 3.000000
11.365000 4.862000 3.000000
10.651000 3.637000 3.000000
11.354000 2.406000 3.000000
10.640000 1.181000 3.000000
13.573000 23.271999 3.000000
12.859000 22.048000 3.000000
13.563000 20.816000 3.000000
12.848000 19.591999 3.000000
13.552000 18.360001 3.000000
12.837000 17.136000 3.000000
13.541000 15.904000 3.000000
12.827000 14.680000 3.000000
13.530000 13.449000 3.000000
12.816000 12.224000 3.000000
13.519000 10.993000 3.000000
12.805000 9.768000 3.000000
13.508000 8.537000 3.000000
12.794000 7.312000 3.000000
13.498000 6.081000 3.000000
12.783000 4.856000 3.000000
13.487001 3.625000 3.000000
12.772000 2.400000 3.000000
13.476000 1.169000 3.000000
15.717000 26.947001 3.000000
15.002000 25.722000 3.000000
15.706000 24.490999 3.000000
14.991000 23.266001 3.000000
15.695000 22.035000 3.000000
14.981000 20.809999 3.000000
15.684000 19.579000 3.000000
14.970000 18.354000 3.000000
15.673000 17.122999 3.000000
14.959000 15.898000 3.000000
15.662000 14.667000 3.000000
14.948000 13.442000 3.000000
15.652000 12.211001 3.000000
14.937000 10.986000 3.000000
15.641000 9.755000 3.000000
14.926000 8.530000 3.000000
15.630000 7.299000 3.000000
14.916000 6.074000 3.000000
15.619001 4.843000 3.000000
14.905000 3.618000 3.000000
15.608000 2.387000 3.000000
14.894000 1.162000 3.000000
17.860001 30.622000 3.000000
17.145000 29.396999 3.000000
17.849001 28.166000 3.000000
17.135000 26.941000 3.000000
17.837999 25.709999 3.000000
17.124001 24.485001 3.000000
17.827000 23.254000 3.000000
17.113001 22.028999 3.000000
17.816000 20.798000 3.000000
17.101999 19.573000 3.000000
17.806000 18.341999 3.000000
17.091000 17.117001 3.000000
17.795000 15.886000 3.000000
17.080000 14.661000 3.000000
17.784000 13.430000 3.000000
17.070000 12.205000 3.000000
17.773001 10.974000 3.000000
17.059000 9.749000 3.000000
17.761999 8.518000 3.000000
17.048000 7.293000 3.000000
17.752001 6.062000 3.000000
17.037001 4.837000 3.000000
17.740999 3.606000 3.000000
17.025999 2.381000 3.000000
17.730000 1.150000 3.000000
20.003000 34.296001 3.000000
19.289000 33.070999 3.000000
19.992001 31.840000 3.000000
19.278000 30.615000 3.000000
19.981001 29.384001 3.000000
19.267000 28.159000 3.000000
19.969999 26.928000 3.000000
19.256000 25.702999 3.000000
19.959999 24.472000 3.000000
19.245001 23.247000 3.000000
19.948999 22.016001 3.000000
19.233999 20.791000 3.000000
19.938000 19.559999 3.000000
19.224001 18.334999 3.000000
19.927000 17.104000 3.000000
19.212999 15.879000 3.000000
19.916000 14.648000 3.000000
19.202000 13.424000 3.000000
19.906000 12.192000 3.000000
19.191000 10.968000 3.000000
19.895001 9.736000 3.000000
19.180000 8.512000 3.000000
19.884001 7.280000 3.000000
19.169001 6.056000 3.000000
19.872999 4.824000 3.000000
19.159000 3.600000 3.000000
19.862000 2.368000 3.000000
19.148001 1.144000 3.000000
22.146000 37.971001 3.000000
21.431999 36.745998 3.000000
22.135000 35.514999 3.000000
21.421000 34.290001 3.000000
22.124001 33.058998 3.000000
21.410000 31.834000 3.000000
22.114000 30.603001 3.000000
21.399000 29.378000 3.000000
22.103001 28.146999 3.000000
21.388001 26.922001 3.000000
22.091999 25.691000 3.000000
21.378000 24.466000 3.000000
22.080999 23.235001 3.000000
21.367001 22.010000 3.000000
22.070000 20.778999 3.000000
21.356001 19.554001 3.000000
22.059999 18.323000 3.000000
21.344999 17.098000 3.000000
22.049000 15.867000 3.000000
21.334000 14.642000 3.000000
22.038000 13.411000 3.000000
21.323000 12.186000 3.000000
22.027000 10.955000 3.000000
21.313000 9.730000 3.000000
22.016001 8.499000 3.000000
21.302000 7.274000 3.000000
22.004999 6.043000 3.000000
21.291000 4.818000 3.000000
21.995001 3.587000 3.000000
21.280001 2.362000 3.000000
21.983999 1.131000 3.000000
24.289000 41.645001 3.000000
23.575001 40.419998 3.000000
24.278000 39.188999 3.000000
23.563999 37.965000 3.000000
24.268000 36.733002 3.000000
23.552999 35.508999 3.000000
24.257000 34.277000 3.000000
23.542000 33.053001 3.000000
24.246000 31.820999 3.000000
23.532000 30.597000 3.000000
24.235001 29.365000 3.000000
23.521000 28.141001 3.000000
24.224001 26.909000 3.000000
23.510000 25.684999 3.000000
24.214001 24.454000 3.000000
23.499001 23.229000 3.000000
24.202999 21.997999 3.000000
23.488001 20.773001 3.000000
24.191999 19.542000 3.000000
23.476999 18.316999 3.000000
24.181000 17.086000 3.000000
23.466999 15.861000 3.000000
24.170000 14.630000 3.000000
23.455999 13.405000 3.000000
24.159000 12.174000 3.000000
23.445000 10.949000 3.000000
24.149000 9.718000 3.000000
23.434000 8.493000 3.000000
24.138001 7.262000 3.000000
23.423000 6.037000 3.000000
24.127001 4.806000 3.000000
23.413000 3.581000 3.000000
24.115999 2.350000 3.000000
23.402000 1.125000 3.000000
26.431999 45.320000 3.000000
25.718000 44.095001 3.000000
26.422001 42.863998 3.000000
25.707001 41.639000 3.000000
26.410999 40.408001 3.000000
25.695999 39.182999 3.000000
26.400000 37.952000 3.000000
25.686001 36.727001 3.000000
26.389000 35.495998 3.000000
25.674999 34.271000 3.000000
26.378000 33.040001 3.000000
25.664000 31.815001 3.000000
26.368000 30.584000 3.000000
25.653000 29.358999 3.000000
26.357000 28.128000 3.000000
25.642000 26.903000 3.000000
26.346001 25.672001 3.000000
25.631000 24.447001 3.000000
26.334999 23.216000 3.000000
25.621000 21.990999 3.000000
26.323999 20.760000 3.000000
25.610001 19.535000 3.000000
26.313000 18.304001 3.000000
25.599001 17.079000 3.000000
26.302999 15.848000 3.000000
25.587999 14.623000 3.000000
26.292000 13.392000 3.000000
25.577000 12.167000 3.000000
26.281000 10.936000 3.000000
25.567000 9.711001 3.000000
26.270000 8.480000 3.000000
25.556000 7.255000 3.000000
26.259001 6.024000 3.000000
25.545000 4.799000 3.000000
26.247999 3.568000 3.000000
25.534000 2.343000 3.000000
26.238001 1.112000 3.000000
28.576000 48.994999 3.000000
27.861000 47.770001 3.000000
28.565001 46.539001 3.000000
27.850000 45.313999 3.000000
28.554001 44.083000 3.000000
27.840000 42.858002 3.000000
28.542999 41.626999 3.000000
27.829000 40.402000 3.000000
28.532000 39.171001 3.000000
27.818001 37.945999 3.000000
28.521999 36.715000 3.000000
27.806999 35.490002 3.000000
28.511000 34.258999 3.000000
27.796000 33.034000 3.000000
28.500000 31.802999 3.000000
27.785000 30.577999 3.000000
28.489000 29.347000 3.000000
27.775000 28.122000 3.000000
28.478001 26.891001 3.000000
27.764000 25.666000 3.000000
28.466999 24.434999 3.000000
27.753000 23.209999 3.000000
28.457001 21.979000 3.000000
27.742001 20.754000 3.000000
28.445999 19.523001 3.000000
27.731001 18.298000 3.000000
28.434999 17.066999 3.000000
27.721001 15.842000 3.000000
28.424000 14.611000 3.000000
27.709999 13.386000 3.000000
28.413000 12.155000 3.000000
27.698999 10.930000 3.000000
28.402000 9.699000 3.000000
27.688000 8.474000 3.000000
28.392000 7.243000 3.000000
27.677000 6.018000 3.000000
28.381000 4.787000 3.000000
27.666000 3.562000 3.000000
28.370001 2.331000 3.000000
27.656000 1.106000 3.000000
30.719000 52.668999 3.000000
30.004000 51.444000 3.000000
30.708000 50.213001 3.000000
29.994000 48.987999 3.000000
30.697001 47.757000 3.000000
29.983000 46.532001 3.000000
30.686001 45.300999 3.000000
29.972000 44.076000 3.000000
30.676001 42.845001 3.000000
29.961000 41.619999 3.000000
30.665001 40.389000 3.000000
29.950001 39.164001 3.000000
30.653999 37.932999 3.000000
29.938999 36.708000 3.000000
30.643000 35.477001 3.000000
29.929001 34.251999 3.000000
30.632000 33.021000 3.000000
29.917999 31.796000 3.000000
30.621000 30.565001 3.000000
29.907000 29.340000 3.000000
30.611000 28.108999 3.000000
29.896000 26.885000 3.000000
30.600000 25.653000 3.000000
29.885000 24.429001 3.000000
30.589001 23.197001 3.000000
29.875000 21.973000 3.000000
30.577999 20.740999 3.000000
29.864000 19.517000 3.000000
30.567000 18.285000 3.000000
29.853001 17.061001 3.000000
30.556000 15.829000 3.000000
29.841999 14.605000 3.000000
30.546000 13.374000 3.000000
29.830999 12.149000 3.000000
30.535000 10.918000 3.000000
29.820000 9.693000 3.000000
30.524000 8.462000 3.000000
29.809999 7.237000 3.000000
30.513001 6.006000 3.000000
29.799000 4.781000 3.000000
30.502001 3.550000 3.000000
29.788000 2.325000 3.000000
30.492001 1.094000 3.000000
32.862000 56.344002 3.000000
32.147999 55.119000 3.000000
32.851002 53.888001 3.000000
32.137001 52.662998 3.000000
32.840000 51.431999 3.000000
32.125999 50.207001 3.000000
32.830002 48.976002 3.000000
32.115002 47.750999 3.000000
32.819000 46.520001 3.000000
32.104000 45.294998 3.000000
32.807999 44.063999 3.000000
32.092999 42.839001 3.000000
32.797001 41.608002 3.000000
32.083000 40.382999 3.000000
32.785999 39.152000 3.000000
32.071999 37.926998 3.000000
32.775002 36.695999 3.000000
32.061001 35.471001 3.000000
32.764999 34.240002 3.000000
32.049999 33.014999 3.000000
32.754002 31.784000 3.000000
32.039001 30.559000 3.000000
32.743000 29.327999 3.000000
32.028999 28.103001 3.000000
32.731999 26.872000 3.000000
32.018002 25.646999 3.000000
32.721001 24.416000 3.000000
32.007000 23.191000 3.000000
32.709999 21.959999 3.000000
31.996000 20.735001 3.000000
32.700001 19.504000 3.000000
31.985001 18.278999 3.000000
32.688999 17.048000 3.000000
31.974001 15.823000 3.000000
32.678001 14.592000 3.000000
31.964001 13.367000 3.000000
32.667000 12.136000 3.000000
31.952999 10.911000 3.000000
32.655998 9.680000 3.000000
31.941999 8.455000 3.000000
32.646000 7.224000 3.000000
31.931000 5.999000 3.000000
32.634998 4.768000 3.000000
31.920000 3.543000 3.000000
32.624001 2.312000 3.000000
31.909000 1.087000 3.000000
35.005001 60.018002 3.000000
34.291000 58.792999 3.000000
34.994000 57.562000 3.000000
34.279999 56.337002 3.000000
34.984001 55.105999 3.000000
34.269001 53.881001 3.000000
34.973000 52.650002 3.000000
34.257999 51.425999 3.000000
34.962002 50.194000 3.000000
34.247002 48.970001 3.000000
34.951000 47.737999 3.000000
34.237000 46.514000 3.000000
34.939999 45.282001 3.000000
34.226002 44.057999 3.000000
34.929001 42.826000 3.000000
34.215000 41.602001 3.000000
34.918999 40.369999 3.000000
34.203999 39.146000 3.000000
34.908001 37.915001 3.000000
34.193001 36.689999 3.000000
34.896999 35.459000 3.000000
34.182999 34.234001 3.000000
34.886002 33.002998 3.000000
34.172001 31.778000 3.000000
34.875000 30.547001 3.000000
34.160999 29.322001 3.000000
34.863998 28.091000 3.000000
34.150002 26.865999 3.000000
34.854000 25.635000 3.000000
34.139000 24.410000 3.000000
34.842999 23.179001 3.000000
34.127998 21.954001 3.000000
34.832001 20.723000 3.000000
34.118000 19.497999 3.000000
34.820999 18.267000 3.000000
34.106998 17.042000 3.000000
34.810001 15.811000 3.000000
34.096001 14.586001 3.000000
34.799999 13.355000 3.000000
34.084999 12.130000 3.000000
34.789001 10.899000 3.000000
34.074001 9.674000 3.000000
34.778000 8.443000 3.000000
34.063000 7.218000 3.000000
34.766998 5.987000 3.000000
34.053001 4.762000 3.000000
34.756000 3.531000 3.000000
34.042000 2.306000 3.000000
34.744999 1.075000 3.000000
37.147999 63.693001 3.000000
36.433998 62.467999 3.000000
37.138000 61.237000 3.000000
36.423000 60.012001 3.000000
37.126999 58.780998 3.000000
36.411999 57.556000 3.000000
37.116001 56.325001 3.000000
36.401001 55.099998 3.000000
37.104999 53.869000 3.000000
36.390999 52.644001 3.000000
37.094002 51.412998 3.000000
36.380001 50.188000 3.000000
37.083000 48.957001 3.000000
36.369000 47.731999 3.000000
37.073002 46.500999 3.000000
36.358002 45.276001 3.000000
37.062000 44.044998 3.000000
36.347000 42.820000 3.000000
37.050999 41.589001 3.000000
36.337002 40.363998 3.000000
37.040001 39.132999 3.000000
36.326000 37.908001 3.000000
37.028999 36.676998 3.000000
36.314999 35.452000 3.000000
37.018002 34.221001 3.000000
36.304001 32.995998 3.000000
37.007999 31.764999 3.000000
36.292999 30.540001 3.000000
36.997002 29.309000 3.000000
36.282001 28.084000 3.000000
36.986000 26.853001 3.000000
36.271999 25.628000 3.000000
36.974999 24.396999 3.000000
36.261002 23.172001 3.000000
36.964001 21.941000 3.000000
36.250000 20.716000 3.000000
36.953999 19.485001 3.000000
36.238998 18.260000 3.000000
36.943001 17.028999 3.000000
36.228001 15.804000 3.000000
36.931999 14.573000 3.000000
36.216999 13.349000 3.000000
36.921001 12.117000 3.000000
36.207001 10.893000 3.000000
36.910000 9.661000 3.000000
36.195999 8.437000 3.000000
36.898998 7.205000 3.000000
36.185001 5.981000 3.000000
36.889000 4.749000 3.000000
36.174000 3.525000 3.000000
36.877998 2.293000 3.000000
36.162998 1.069000 3.000000
39.292000 67.366997 3.000000
38.577000 66.142998 3.000000
39.280998 64.912003 3.000000
38.566002 63.687000 3.000000
39.270001 62.456001 3.000000
38.555000 61.230999 3.000000
39.258999 60.000000 3.000000
38.544998 58.775002 3.000000
39.248001 57.543999 3.000000
38.534000 56.319000 3.000000
39.237000 55.088001 3.000000
38.522999 53.862999 3.000000
39.227001 52.632000 3.000000
38.512001 51.407001 3.000000
39.216000 50.175999 3.000000
38.500999 48.951000 3.000000
39.205002 47.720001 3.000000
38.491001 46.494999 3.000000
39.194000 45.264000 3.000000
38.480000 44.039001 3.000000
39.182999 42.807999 3.000000
38.469002 41.583000 3.000000
39.172001 40.352001 3.000000
38.458000 39.126999 3.000000
39.161999 37.896000 3.000000
38.446999 36.671002 3.000000
39.151001 35.439999 3.000000
38.436001 34.215000 3.000000
39.139999 32.984001 3.000000
38.425999 31.759001 3.000000
39.129002 30.528000 3.000000
38.415001 29.302999 3.000000
39.118000 28.072001 3.000000
38.403999 26.847000 3.000000
39.108002 25.615999 3.000000
38.393002 24.391001 3.000000
39.097000 23.160000 3.000000
38.382000 21.935000 3.000000
39.085999 20.704000 3.000000
38.370998 19.479000 3.000000
39.075001 18.247999 3.000000
38.361000 17.023001 3.000000
39.063999 15.792000 3.000000
38.349998 14.567000 3.000000
39.053001 13.336001 3.000000
38.339001 12.111000 3.000000
39.042999 10.880000 3.000000
38.327999 9.655000 3.000000
39.032001 8.424000 3.000000
38.317001 7.199000 3.000000
39.021000 5.968000 3.000000
38.306999 4.743000 3.000000
39.009998 3.512000 3.000000
38.296001 2.287000 3.000000
38.999001 1.056000 3.000000
41.435001 71.042000 3.000000
40.720001 69.817001 3.000000
41.424000 68.585999 3.000000
40.709000 67.361000 3.000000
41.412998 66.129997 3.000000
40.699001 64.904999 3.000000
41.402000 63.674000 3.000000
40.688000 62.449001 3.000000
41.390999 61.217999 3.000000
40.676998 59.993000 3.000000
41.381000 58.762001 3.000000
40.666000 57.536999 3.000000
41.369999 56.306000 3.000000
40.654999 55.081001 3.000000
41.359001 53.849999 3.000000
40.645001 52.625000 3.000000
41.348000 51.394001 3.000000
40.633999 50.168999 3.000000
41.337002 48.938000 3.000000
40.623001 47.713001 3.000000
41.326000 46.481999 3.000000
40.612000 45.257000 3.000000
41.316002 44.026001 3.000000
40.601002 42.800999 3.000000
41.305000 41.570000 3.000000
40.590000 40.346001 3.000000
41.293999 39.113998 3.000000
40.580002 37.889999 3.000000
41.283001 36.658001 3.000000
40.569000 35.433998 3.000000
41.271999 34.202000 3.000000
40.557999 32.978001 3.000000
41.262001 31.746000 3.000000
40.547001 30.521999 3.000000
41.250999 29.290001 3.000000
40.535999 28.066000 3.000000
41.240002 26.834999 3.000000
40.525002 25.610001 3.000000
41.229000 24.379000 3.000000
40.514999 23.153999 3.000000
41.217999 21.923000 3.000000
40.504002 20.698000 3.000000
41.207001 19.466999 3.000000
40.493000 18.242001 3.000000
41.196999 17.011000 3.000000
40.481999 15.786000 3.000000
41.186001 14.555000 3.000000
40.471001 13.330000 3.000000
41.174999 12.099000 3.000000
40.460999 10.874000 3.000000
41.164001 9.643000 3.000000
40.450001 8.418000 3.000000
41.153000 7.187000 3.000000
40.438999 5.962000 3.000000
41.141998 4.731000 3.000000
40.428001 3.506000 3.000000
41.132000 2.275000 3.000000
40.417000 1.050000 3.000000
43.577999 74.717003 3.000000
42.862999 73.491997 3.000000
43.567001 72.261002 3.000000
42.853001 71.036003 3.000000
43.556000 69.805000 3.000000
42.841999 68.580002 3.000000
43.544998 67.348999 3.000000
42.831001 66.124001 3.000000
43.535000 64.892998 3.000000
42.820000 63.667999 3.000000
43.523998 62.437000 3.000000
42.808998 61.212002 3.000000
43.513000 59.980999 3.000000
42.799000 58.756000 3.000000
43.501999 57.525002 3.000000
42.787998 56.299999 3.000000
43.491001 55.069000 3.000000
42.777000 53.844002 3.000000
43.480000 52.612999 3.000000
42.765999 51.388000 3.000000
43.470001 50.157001 3.000000
42.755001 48.931999 3.000000
43.459000 47.701000 3.000000
42.744000 46.476002 3.000000
43.448002 45.244999 3.000000
42.734001 44.020001 3.000000
43.437000 42.789001 3.000000
42.723000 41.563999 3.000000
43.425999 40.333000 3.000000
42.712002 39.108002 3.000000
43.416000 37.876999 3.000000
42.701000 36.652000 3.000000
43.404999 35.421002 3.000000
42.689999 34.195999 3.000000
43.394001 32.965000 3.000000
42.679001 31.740000 3.000000
43.382999 30.509001 3.000000
42.668999 29.284000 3.000000
43.372002 28.052999 3.000000
42.658001 26.827999 3.000000
43.361000 25.597000 3.000000
42.646999 24.372000 3.000000
43.351002 23.141001 3.000000
42.636002 21.916000 3.000000
43.340000 20.684999 3.000000
42.625000 19.459999 3.000000
43.328999 18.229000 3.000000
42.615002 17.004000 3.000000
43.318001 15.773000 3.000000
42.604000 14.548000 3.000000
43.306999 13.317000 3.000000
42.592999 12.092000 3.000000
43.296001 10.861000 3.000000
42.582001 9.636000 3.000000
43.285999 8.405000 3.000000
42.570999 7.180000 3.000000
43.275002 5.949000 3.000000
42.560001 4.724000 3.000000
43.264000 3.493000 3.000000
42.549999 2.268000 3.000000
43.252998 1.037000 3.000000
45.721001 78.390999 3.000000
45.007000 77.166000 3.000000
45.709999 75.934998 3.000000
44.995998 74.709999 3.000000
45.699001 73.478996 3.000000
44.985001 72.253998 3.000000
45.688999 71.023003 3.000000
44.973999 69.797996 3.000000
45.678001 68.567001 3.000000
44.963001 67.342003 3.000000
45.667000 66.111000 3.000000
44.952999 64.887001 3.000000
45.655998 63.654999 3.000000
44.942001 62.431000 3.000000
45.645001 61.199001 3.000000
44.931000 59.974999 3.000000
45.633999 58.743000 3.000000
44.919998 57.519001 3.000000
45.624001 56.286999 3.000000
44.909000 55.063000 3.000000
45.612999 53.831001 3.000000
44.897999 52.606999 3.000000
45.602001 51.375999 3.000000
44.888001 50.151001 3.000000
45.591000 48.919998 3.000000
44.876999 47.695000 3.000000
45.580002 46.464001 3.000000
44.866001 45.238998 3.000000
45.570000 44.007999 3.000000
44.855000 42.783001 3.000000
45.558998 41.551998 3.000000
44.844002 40.327000 3.000000
45.548000 39.096001 3.000000
44.833000 37.870998 3.000000
45.536999 36.639999 3.000000
44.823002 35.415001 3.000000
45.526001 34.183998 3.000000
44.812000 32.959000 3.000000
45.514999 31.728001 3.000000
44.800999 30.503000 3.000000
45.505001 29.271999 3.000000
44.790001 28.047001 3.000000
45.494000 26.816000 3.000000
44.778999 25.591000 3.000000
45.483002 24.360001 3.000000
44.769001 23.135000 3.000000
45.472000 21.903999 3.000000
44.757999 20.679001 3.000000
45.460999 19.448000 3.000000
44.747002 18.223000 3.000000
45.450001 16.992001 3.000000
44.736000 15.767000 3.000000
45.439999 14.536000 3.000000
44.724998 13.311000 3.000000
45.429001 12.080000 3.000000
44.714001 10.855000 3.000000
45.417999 9.624000 3.000000
44.703999 8.399000 3.000000
45.407001 7.168000 3.000000
44.693001 5.943000 3.000000
45.396000 4.712000 3.000000
44.681999 3.487000 3.000000
45.384998 2.256000 3.000000
44.671002 1.031000 3.000000
47.863998 82.066002 3.000000
47.150002 80.841003 3.000000
47.853001 79.610001 3.000000
47.139000 78.385002 3.000000
47.842999 77.153999 3.000000
47.127998 75.929001 3.000000
47.832001 74.697998 3.000000
47.117001 73.473000 3.000000
47.820999 72.241997 3.000000
47.106998 71.016998 3.000000
47.810001 69.786003 3.000000
47.096001 68.560997 3.000000
47.799000 67.330002 3.000000
47.084999 66.105003 3.000000
47.787998 64.874001 3.000000
47.074001 63.648998 3.000000
47.778000 62.417999 3.000000
47.063000 61.193001 3.000000
47.766998 59.962002 3.000000
47.051998 58.737000 3.000000
47.756000 57.506000 3.000000
47.042000 56.280998 3.000000
47.744999 55.049999 3.000000
47.030998 53.825001 3.000000
47.734001 52.594002 3.000000
47.020001 51.369000 3.000000
47.723999 50.138000 3.000000
47.008999 48.912998 3.000000
47.713001 47.681999 3.000000
46.998001 46.457001 3.000000
47.702000 45.226002 3.000000
46.987000 44.000999 3.000000
47.691002 42.770001 3.000000
46.977001 41.544998 3.000000
47.680000 40.313999 3.000000
46.966000 39.089001 3.000000
47.668999 37.858002 3.000000
46.955002 36.632999 3.000000
47.659000 35.402000 3.000000
46.944000 34.176998 3.000000
47.647999 32.945999 3.000000
46.932999 31.721001 3.000000
47.637001 30.490000 3.000000
46.923000 29.264999 3.000000
47.625999 28.034000 3.000000
46.911999 26.809999 3.000000
47.615002 25.577999 3.000000
46.901001 24.354000 3.000000
47.604000 23.122000 3.000000
46.889999 21.898001 3.000000
47.594002 20.666000 3.000000
46.879002 19.442000 3.000000
47.583000 18.209999 3.000000
46.868000 16.986000 3.000000
47.571999 15.754000 3.000000
46.858002 14.530000 3.000000
47.561001 13.299000 3.000000
46.847000 12.074000 3.000000
47.549999 10.843000 3.000000
46.835999 9.618000 3.000000
47.539001 8.387000 3.000000
46.825001 7.162000 3.000000
47.528999 5.931000 3.000000
46.813999 4.706000 3.000000
47.518002 3.475000 3.000000
46.803001 2.250000 3.000000
47.507000 1.019000 3.000000
50.007000 85.739998 3.000000
49.292999 84.515999 3.000000
49.997002 83.283997 3.000000
49.282001 82.059998 3.000000
49.986000 80.828003 3.000000
49.271000 79.603996 3.000000
49.974999 78.373001 3.000000
49.261002 77.148003 3.000000
49.964001 75.917000 3.000000
49.250000 74.692001 3.000000
49.952999 73.460999 3.000000
49.238998 72.236000 3.000000
49.942001 71.004997 3.000000
49.228001 69.779999 3.000000
49.931999 68.549004 3.000000
49.216999 67.323998 3.000000
49.921001 66.093002 3.000000
49.206001 64.867996 3.000000
49.910000 63.637001 3.000000
49.195999 62.411999 3.000000
49.898998 61.181000 3.000000
49.185001 59.956001 3.000000
49.888001 58.724998 3.000000
49.174000 57.500000 3.000000
49.877998 56.269001 3.000000
49.162998 55.043999 3.000000
49.867001 53.813000 3.000000
49.152000 52.588001 3.000000
49.855999 51.356999 3.000000
49.140999 50.132000 3.000000
49.845001 48.901001 3.000000
49.131000 47.675999 3.000000
49.834000 46.445000 3.000000
49.119999 45.220001 3.000000
49.823002 43.988998 3.000000
49.109001 42.764000 3.000000
49.813000 41.533001 3.000000
49.098000 40.307999 3.000000
49.801998 39.077000 3.000000
49.087002 37.852001 3.000000
49.791000 36.620998 3.000000
49.077000 35.396000 3.000000
49.779999 34.165001 3.000000
49.066002 32.939999 3.000000
49.769001 31.709000 3.000000
49.055000 30.483999 3.000000
49.757999 29.253000 3.000000
49.043999 28.028000 3.000000
49.748001 26.797001 3.000000
49.033001 25.572001 3.000000
49.737000 24.341000 3.000000
49.021999 23.115999 3.000000
49.726002 21.885000 3.000000
49.012001 20.660000 3.000000
49.715000 19.429001 3.000000
49.000999 18.204000 3.000000
49.703999 16.973000 3.000000
48.990002 15.748000 3.000000
49.693001 14.517000 3.000000
48.979000 13.292000 3.000000
49.682999 12.061000 3.000000
48.967999 10.836001 3.000000
49.672001 9.605000 3.000000
48.957001 8.380000 3.000000
49.660999 7.149000 3.000000
48.946999 5.924000 3.000000
49.650002 4.693000 3.000000
48.936001 3.468000 3.000000
49.639000 2.237000 3.000000
48.924999 1.012000 3.000000
52.151001 89.415001 3.000000
51.436001 88.190002 3.000000
52.139999 86.959000 3.000000
51.424999 85.734001 3.000000
52.129002 84.502998 3.000000
51.415001 83.278000 3.000000
52.118000 82.046997 3.000000
51.403999 80.821999 3.000000
52.106998 79.591003 3.000000
51.393002 78.365997 3.000000
52.096001 77.135002 3.000000
51.382000 75.910004 3.000000
52.085999 74.679001 3.000000
51.370998 73.454002 3.000000
52.075001 72.223000 3.000000
51.360001 70.998001 3.000000
52.063999 69.766998 3.000000
51.349998 68.542000 3.000000
52.053001 67.310997 3.000000
51.339001 66.085999 3.000000
52.042000 64.855003 3.000000
51.327999 63.630001 3.000000
52.030998 62.398998 3.000000
51.317001 61.174000 3.000000
52.021000 59.943001 3.000000
51.306000 58.717999 3.000000
52.009998 57.487000 3.000000
51.294998 56.262001 3.000000
51.999001 55.030998 3.000000
51.285000 53.806999 3.000000
51.987999 52.575001 3.000000
51.273998 51.351002 3.000000
51.977001 50.119000 3.000000
51.263000 48.895001 3.000000
51.966999 47.662998 3.000000
51.251999 46.438999 3.000000
51.956001 45.207001 3.000000
51.241001 43.983002 3.000000
51.945000 42.750999 3.000000
51.230999 41.527000 3.000000
51.933998 40.296001 3.000000
51.220001 39.070999 3.000000
51.923000 37.840000 3.000000
51.209000 36.615002 3.000000
51.911999 35.383999 3.000000
51.198002 34.159000 3.000000
51.902000 32.928001 3.000000
51.187000 31.702999 3.000000
51.890999 30.472000 3.000000
51.175999 29.247000 3.000000
51.880001 28.016001 3.000000
51.166000 26.791000 3.000000
51.869000 25.559999 3.000000
51.154999 24.334999 3.000000
51.858002 23.104000 3.000000
51.144001 21.879000 3.000000
51.847000 20.648001 3.000000
51.132999 19.423000 3.000000
51.837002 18.191999 3.000000
51.122002 16.966999 3.000000
51.826000 15.736000 3.000000
51.111000 14.511000 3.000000
51.814999 13.280000 3.000000
51.101002 12.055000 3.000000
51.804001 10.824000 3.000000
51.090000 9.599000 3.000000
51.792999 8.368000 3.000000
51.078999 7.143000 3.000000
51.783001 5.912000 3.000000
51.068001 4.687000 3.000000
51.771999 3.456000 3.000000
51.056999 2.231000 3.000000
51.761002 1.000000 3.000000
54.293999 93.089996 3.000000
53.578999 91.864998 3.000000
54.283001 90.634003 3.000000
53.569000 89.408997 3.000000
54.271999 88.178001 3.000000
53.557999 86.953003 3.000000
54.261002 85.722000 3.000000
53.547001 84.497002 3.000000
54.250000 83.265999 3.000000
53.535999 82.041000 3.000000
54.240002 80.809998 3.000000
53.525002 79.584999 3.000000
54.229000 78.353996 3.000000
53.514000 77.128998 3.000000
54.217999 75.898003 3.000000
53.504002 74.672996 3.000000
54.207001 73.442001 3.000000
53.493000 72.217003 3.000000
54.195999 70.986000 3.000000
53.481999 69.761002 3.000000
54.185001 68.529999 3.000000
53.471001 67.305000 3.000000
54.174999 66.073998 3.000000
53.459999 64.848999 3.000000
54.164001 63.618000 3.000000
53.449001 62.393002 3.000000
54.153000 61.161999 3.000000
53.438999 59.937000 3.000000
54.141998 58.706001 3.000000
53.428001 57.480999 3.000000
54.131000 56.250000 3.000000
53.417000 55.025002 3.000000
54.120998 53.793999 3.000000
53.405998 52.569000 3.000000
54.110001 51.338001 3.000000
53.395001 50.112999 3.000000
54.098999 48.882000 3.000000
53.384998 47.657001 3.000000
54.088001 46.425999 3.000000
53.374001 45.201000 3.000000
54.077000 43.970001 3.000000
53.362999 42.744999 3.000000
54.066002 41.514000 3.000000
53.352001 40.289001 3.000000
54.056000 39.057999 3.000000
53.341000 37.833000 3.000000
54.044998 36.602001 3.000000
53.330002 35.376999 3.000000
54.034000 34.146000 3.000000
53.320000 32.921001 3.000000
54.022999 31.690001 3.000000
53.308998 30.465000 3.000000
54.012001 29.233999 3.000000
53.298000 28.009001 3.000000
54.000999 26.778000 3.000000
53.286999 25.552999 3.000000
53.991001 24.322001 3.000000
53.276001 23.097000 3.000000
53.980000 21.865999 3.000000
53.264999 20.641001 3.000000
53.969002 19.410000 3.000000
53.255001 18.184999 3.000000
53.958000 16.954001 3.000000
53.244000 15.729000 3.000000
53.946999 14.498000 3.000000
53.233002 13.274000 3.000000
53.937000 12.042000 3.000000
53.222000 10.818000 3.000000
53.925999 9.586001 3.000000
53.210999 8.362001 3.000000
53.915001 7.130000 3.000000
53.201000 5.906000 3.000000
53.903999 4.674000 3.000000
53.189999 3.450000 3.000000
53.893002 2.219000 3.000000
53.179001 0.994000 3.000000
56.437000 96.764000 3.000000
55.723000 95.539001 3.000000
56.425999 94.307999 3.000000
55.712002 93.083000 3.000000
56.415001 91.851997 3.000000
55.701000 90.626999 3.000000
56.403999 89.396004 3.000000
55.689999 88.170998 3.000000
56.394001 86.940002 3.000000
55.679001 85.714996 3.000000
56.382999 84.484001 3.000000
55.667999 83.259003 3.000000
56.372002 82.028000 3.000000
55.658001 80.803001 3.000000
56.361000 79.571999 3.000000
55.646999 78.348000 3.000000
56.349998 77.115997 3.000000
55.636002 75.891998 3.000000
56.339001 74.660004 3.000000
55.625000 73.435997 3.000000
56.328999 72.204002 3.000000
55.613998 70.980003 3.000000
56.318001 69.748001 3.000000
55.603001 68.524002 3.000000
56.306999 67.292000 3.000000
55.592999 66.068001 3.000000
56.296001 64.836998 3.000000
55.582001 63.612000 3.000000
56.285000 62.381000 3.000000
55.570999 61.155998 3.000000
56.275002 59.924999 3.000000
55.560001 58.700001 3.000000
56.264000 57.469002 3.000000
55.549000 56.244000 3.000000
56.252998 55.013000 3.000000