file written by TR
1.000000
142.511505 0.000000 0.000000
71.255753 123.418584 0.000000
0.000000 0.000000 15.000000
Type1
13468
Cartesian
0.720000 1.222000 3.000000
0.000000 0.000000 3.000000
2.878000 4.887000 3.000000
2.159000 3.666000 3.000000
2.857000 2.431000 3.000000
2.137000 1.210000 3.000000
5.037000 8.553000 3.000000
4.317000 7.331000 3.000000
5.016000 6.097000 3.000000
4.296000 4.875000 3.000000
4.994000 3.641000 3.000000
4.275000 2.419000 3.000000
4.973000 1.185000 3.000000
7.195000 12.218000 3.000000
6.476000 10.997000 3.000000
7.174000 9.763000 3.000000
6.455000 8.541000 3.000000
7.153000 7.307000 3.000000
6.434000 6.085000 3.000000
7.132000 4.851000 3.000000
6.412000 3.629000 3.000000
7.111000 2.395000 3.000000
6.391000 1.173000 3.000000
9.354000 15.884000 3.000000
8.634000 14.662000 3.000000
9.333000 13.428000 3.000000
8.613000 12.206000 3.000000
9.312000 10.972000 3.000000
8.592000 9.750000 3.000000
9.291000 8.516000 3.000000
8.571000 7.294000 3.000000
9.269000 6.060000 3.000000
8.550000 4.839000 3.000000
9.248000 3.604000 3.000000
8.529000 2.383000 3.000000
9.227000 1.149000 3.000000
11.513000 19.549999 3.000000
10.793000 18.327999 3.000000
11.491000 17.094000 3.000000
10.772000 15.872000 3.000000
11.470000 14.638000 3.000000
10.751000 13.416000 3.000000
11.449000 12.182000 3.000000
10.730000 10.960000 3.000000
11.428000 9.726000 3.000000
10.708000 8.504000 3.000000
11.407000 7.270000 3.000000
10.687000 6.048000 3.000000
11.386000 4.814000 3.000000
10.666000 3.592000 3.000000
11.365000 2.358000 3.000000
10.645001 1.136000 3.000000
13.671000 23.215000 3.000000
12.952000 21.993000 3.000000
13.650000 20.759001 3.000000
12.931000 19.537001 3.000000
13.629000 18.302999 3.000000
12.909000 17.080999 3.000000
13.608000 15.847000 3.000000
12.888000 14.625000 3.000000
13.587000 13.391000 3.000000
12.867000 12.170000 3.000000
13.565000 10.936000 3.000000
12.846000 9.714000 3.000000
13.544000 8.480000 3.000000
12.825000 7.258000 3.000000
13.523000 6.024000 3.000000
12.804000 4.802000 3.000000
13.502000 3.568000 3.000000
12.782000 2.346000 3.000000
13.481000 1.112000 3.000000
15.830000 26.881001 3.000000
15.110000 25.659000 3.000000
15.809000 24.424999 3.000000
15.089000 23.202999 3.000000
15.788000 21.969000 3.000000
15.068000 20.747000 3.000000
15.766000 19.513001 3.000000
15.047000 18.291000 3.000000
15.745000 17.056999 3.000000
15.026000 15.835000 3.000000
15.724000 14.601000 3.000000
15.005000 13.379000 3.000000
15.703000 12.145001 3.000000
14.983000 10.923000 3.000000
15.682000 9.689000 3.000000
14.962000 8.467000 3.000000
15.661000 7.233000 3.000000
14.941000 6.011000 3.000000
15.639000 4.777000 3.000000
14.920000 3.556000 3.000000
15.618000 2.322000 3.000000
14.899000 1.100000 3.000000
17.989000 30.546000 3.000000
17.268999 29.323999 3.000000
17.966999 28.090000 3.000000
17.247999 26.868000 3.000000
17.945999 25.634001 3.000000
17.226999 24.412001 3.000000
17.924999 23.177999 3.000000
17.205999 21.957001 3.000000
17.903999 20.722000 3.000000
17.184000 19.500999 3.000000
17.882999 18.267000 3.000000
17.163000 17.045000 3.000000
17.862000 15.811000 3.000000
17.142000 14.589000 3.000000
17.840000 13.355000 3.000000
17.121000 12.133000 3.000000
17.819000 10.899000 3.000000
17.100000 9.677000 3.000000
17.798000 8.443000 3.000000
17.079000 7.221000 3.000000
17.777000 5.987000 3.000000
17.056999 4.765000 3.000000
17.756000 3.531000 3.000000
17.035999 2.309000 3.000000
17.735001 1.075000 3.000000
20.146999 34.212002 3.000000
19.427999 32.990002 3.000000
20.125999 31.756000 3.000000
19.406000 30.534000 3.000000
20.105000 29.299999 3.000000
19.385000 28.077999 3.000000
20.084000 26.844000 3.000000
19.364000 25.622000 3.000000
20.063000 24.388001 3.000000
19.343000 23.166000 3.000000
20.041000 21.931999 3.000000
19.322001 20.709999 3.000000
20.020000 19.476000 3.000000
19.301001 18.254000 3.000000
19.999001 17.020000 3.000000
19.278999 15.798000 3.000000
19.978001 14.564000 3.000000
19.257999 13.343000 3.000000
19.957001 12.108000 3.000000
19.236999 10.887000 3.000000
19.936001 9.653000 3.000000
19.216000 8.431000 3.000000
19.914000 7.197000 3.000000
19.195000 5.975000 3.000000
19.893000 4.741000 3.000000
19.174000 3.519000 3.000000
19.872000 2.285000 3.000000
19.152000 1.063000 3.000000
22.306000 37.876999 3.000000
21.586001 36.654999 3.000000
22.285000 35.421002 3.000000
21.565001 34.199001 3.000000
22.263001 32.965000 3.000000
21.544001 31.744000 3.000000
22.242001 30.509001 3.000000
21.523001 29.288000 3.000000
22.221001 28.054001 3.000000
21.502001 26.832001 3.000000
22.200001 25.598000 3.000000
21.480000 24.375999 3.000000
22.179001 23.142000 3.000000
21.459000 21.920000 3.000000
22.158001 20.686001 3.000000
21.438000 19.464001 3.000000
22.136000 18.230000 3.000000
21.417000 17.007999 3.000000
22.115000 15.774000 3.000000
21.396000 14.552000 3.000000
22.094000 13.318000 3.000000
21.375000 12.096000 3.000000
22.073000 10.862001 3.000000
21.353001 9.640000 3.000000
22.052000 8.406000 3.000000
21.332001 7.184000 3.000000
22.031000 5.950000 3.000000
21.311001 4.729000 3.000000
22.009001 3.494000 3.000000
21.290001 2.273000 3.000000
21.988001 1.039000 3.000000
24.464001 41.542999 3.000000
23.745001 40.320999 3.000000
24.443001 39.087002 3.000000
23.724001 37.865002 3.000000
24.422001 36.631000 3.000000
23.702999 35.409000 3.000000
24.400999 34.174999 3.000000
23.681000 32.952999 3.000000
24.379999 31.719000 3.000000
23.660000 30.497000 3.000000
24.358999 29.263001 3.000000
23.639000 28.041000 3.000000
24.337000 26.806999 3.000000
23.618000 25.584999 3.000000
24.316000 24.351000 3.000000
23.597000 23.129999 3.000000
24.295000 21.895001 3.000000
23.576000 20.674000 3.000000
24.274000 19.440001 3.000000
23.554001 18.218000 3.000000
24.253000 16.983999 3.000000
23.533001 15.762000 3.000000
24.232000 14.528000 3.000000
23.511999 13.306000 3.000000
24.209999 12.072000 3.000000
23.490999 10.850000 3.000000
24.188999 9.616000 3.000000
23.469999 8.394000 3.000000
24.167999 7.160000 3.000000
23.448999 5.938000 3.000000
24.146999 4.704000 3.000000
23.427000 3.482000 3.000000
24.125999 2.248000 3.000000
23.406000 1.026000 3.000000
26.622999 45.208000 3.000000
25.903000 43.986000 3.000000
26.601999 42.751999 3.000000
25.882000 41.530998 3.000000
26.580999 40.296001 3.000000
25.861000 39.075001 3.000000
26.559999 37.841000 3.000000
25.840000 36.619000 3.000000
26.538000 35.384998 3.000000
25.819000 34.162998 3.000000
26.517000 32.929001 3.000000
25.798000 31.707001 3.000000
26.496000 30.473000 3.000000
25.777000 29.250999 3.000000
26.475000 28.017000 3.000000
25.754999 26.795000 3.000000
26.454000 25.561001 3.000000
25.733999 24.339001 3.000000
26.433001 23.105000 3.000000
25.712999 21.882999 3.000000
26.410999 20.649000 3.000000
25.692000 19.427000 3.000000
26.389999 18.193001 3.000000
25.671000 16.971001 3.000000
26.369000 15.737001 3.000000
25.650000 14.516000 3.000000
26.348000 13.281000 3.000000
25.628000 12.060000 3.000000
26.327000 10.826000 3.000000
25.607000 9.604000 3.000000
26.306000 8.370000 3.000000
25.586001 7.148000 3.000000
26.284000 5.914000 3.000000
25.565001 4.692000 3.000000
26.263001 3.458000 3.000000
25.544001 2.236000 3.000000
26.242001 1.002000 3.000000
28.782000 48.874001 3.000000
28.062000 47.652000 3.000000
28.760000 46.417999 3.000000
28.041000 45.195999 3.000000
28.739000 43.962002 3.000000
28.020000 42.740002 3.000000
28.718000 41.506000 3.000000
27.999001 40.284000 3.000000
28.697001 39.049999 3.000000
27.976999 37.827999 3.000000
28.676001 36.594002 3.000000
27.955999 35.372002 3.000000
28.655001 34.138000 3.000000
27.935000 32.917000 3.000000
28.634001 31.681999 3.000000
27.914000 30.461001 3.000000
28.611999 29.226999 3.000000
27.893000 28.004999 3.000000
28.591000 26.771000 3.000000
27.872000 25.549000 3.000000
28.570000 24.315001 3.000000
27.850000 23.093000 3.000000
28.549000 21.858999 3.000000
27.829000 20.636999 3.000000
28.528000 19.403000 3.000000
27.808001 18.181000 3.000000
28.507000 16.947001 3.000000
27.787001 15.725000 3.000000
28.485001 14.491000 3.000000
27.766001 13.269000 3.000000
28.464001 12.035000 3.000000
27.745001 10.813000 3.000000
28.443001 9.579000 3.000000
27.724001 8.357000 3.000000
28.422001 7.123000 3.000000
27.702000 5.902000 3.000000
28.400999 4.667000 3.000000
27.681000 3.446000 3.000000
28.379999 2.212000 3.000000
27.660000 0.990000 3.000000
30.940001 52.539001 3.000000
30.221001 51.317001 3.000000
30.919001 50.083000 3.000000
30.200001 48.862000 3.000000
30.898001 47.627998 3.000000
30.177999 46.405998 3.000000
30.877001 45.172001 3.000000
30.157000 43.950001 3.000000
30.856001 42.716000 3.000000
30.136000 41.494000 3.000000
30.834000 40.259998 3.000000
30.115000 39.037998 3.000000
30.813000 37.804001 3.000000
30.094000 36.582001 3.000000
30.792000 35.348000 3.000000
30.073000 34.125999 3.000000
30.771000 32.891998 3.000000
30.051001 31.670000 3.000000
30.750000 30.436001 3.000000
30.030001 29.214001 3.000000
30.729000 27.980000 3.000000
30.009001 26.757999 3.000000
30.707001 25.524000 3.000000
29.988001 24.302999 3.000000
30.686001 23.068001 3.000000
29.966999 21.847000 3.000000
30.665001 20.613001 3.000000
29.945999 19.391001 3.000000
30.643999 18.157000 3.000000
29.924000 16.935000 3.000000
30.622999 15.701000 3.000000
29.903000 14.479000 3.000000
30.601999 13.245000 3.000000
29.882000 12.023000 3.000000
30.580999 10.789000 3.000000
29.861000 9.567000 3.000000
30.559000 8.333000 3.000000
29.840000 7.111000 3.000000
30.538000 5.877000 3.000000
29.819000 4.655000 3.000000
30.517000 3.421000 3.000000
29.797001 2.199000 3.000000
30.496000 0.965000 3.000000
33.098999 56.205002 3.000000
32.379002 54.983002 3.000000
33.077999 53.749001 3.000000
32.358002 52.527000 3.000000
33.056999 51.292999 3.000000
32.337002 50.070999 3.000000
33.035000 48.837002 3.000000
32.316002 47.615002 3.000000
33.014000 46.381000 3.000000
32.294998 45.159000 3.000000
32.993000 43.924999 3.000000
32.273998 42.702999 3.000000
32.972000 41.469002 3.000000
32.251999 40.248001 3.000000
32.951000 39.014000 3.000000
32.230999 37.792000 3.000000
32.930000 36.557999 3.000000
32.209999 35.335999 3.000000
32.908001 34.102001 3.000000
32.188999 32.880001 3.000000
32.887001 31.646000 3.000000
32.167999 30.424000 3.000000
32.866001 29.190001 3.000000
32.146999 27.968000 3.000000
32.845001 26.733999 3.000000
32.125000 25.511999 3.000000
32.824001 24.278000 3.000000
32.104000 23.056000 3.000000
32.803001 21.822001 3.000000
32.083000 20.600000 3.000000
32.780998 19.365999 3.000000
32.062000 18.143999 3.000000
32.759998 16.910000 3.000000
32.041000 15.688000 3.000000
32.738998 14.454000 3.000000
32.020001 13.233000 3.000000
32.717999 11.999000 3.000000
31.997999 10.777000 3.000000
32.696999 9.543000 3.000000
31.976999 8.321000 3.000000
32.675999 7.087000 3.000000
31.955999 5.865000 3.000000
32.653999 4.631000 3.000000
31.935000 3.409000 3.000000
32.632999 2.175000 3.000000
31.914000 0.953000 3.000000
35.257999 59.869999 3.000000
34.537998 58.648998 3.000000
35.236000 57.415001 3.000000
34.516998 56.193001 3.000000
35.215000 54.959000 3.000000
34.495998 53.737000 3.000000
35.194000 52.502998 3.000000
34.473999 51.280998 3.000000
35.173000 50.047001 3.000000
34.452999 48.825001 3.000000
35.152000 47.591000 3.000000
34.431999 46.369000 3.000000
35.131000 45.134998 3.000000
34.410999 43.912998 3.000000
35.109001 42.679001 3.000000
34.389999 41.457001 3.000000
35.088001 40.223000 3.000000
34.369000 39.000999 3.000000
35.067001 37.766998 3.000000
34.348000 36.544998 3.000000
35.046001 35.311001 3.000000
34.326000 34.089001 3.000000
35.025002 32.855000 3.000000
34.305000 31.634001 3.000000
35.004002 30.400000 3.000000
34.284000 29.177999 3.000000
34.981998 27.944000 3.000000
34.263000 26.722000 3.000000
34.960999 25.488001 3.000000
34.242001 24.266001 3.000000
34.939999 23.032000 3.000000
34.221001 21.809999 3.000000
34.918999 20.576000 3.000000
34.199001 19.354000 3.000000
34.897999 18.120001 3.000000
34.178001 16.898001 3.000000
34.876999 15.664000 3.000000
34.157001 14.442000 3.000000
34.855000 13.208000 3.000000
34.136002 11.986000 3.000000
34.834000 10.752000 3.000000
34.115002 9.530000 3.000000
34.813000 8.296000 3.000000
34.094002 7.074000 3.000000
34.792000 5.840000 3.000000
34.071999 4.619000 3.000000
34.771000 3.385000 3.000000
34.050999 2.163000 3.000000
34.750000 0.929000 3.000000
37.416000 63.535999 3.000000
36.696999 62.313999 3.000000
37.395001 61.080002 3.000000
36.674999 59.858002 3.000000
37.374001 58.624001 3.000000
36.653999 57.402000 3.000000
37.353001 56.167999 3.000000
36.632999 54.945999 3.000000
37.331001 53.712002 3.000000
36.612000 52.490002 3.000000
37.310001 51.256000 3.000000
36.591000 50.035000 3.000000
37.289001 48.799999 3.000000
36.570000 47.578999 3.000000
37.268002 46.345001 3.000000
36.548000 45.123001 3.000000
37.247002 43.889000 3.000000
36.527000 42.667000 3.000000
37.226002 41.432999 3.000000
36.506000 40.210999 3.000000
37.205002 38.977001 3.000000
36.485001 37.755001 3.000000
37.182999 36.521000 3.000000
36.464001 35.299000 3.000000
37.161999 34.064999 3.000000
36.443001 32.842999 3.000000
37.140999 31.608999 3.000000
36.421002 30.386999 3.000000
37.119999 29.153000 3.000000
36.400002 27.931000 3.000000
37.098999 26.697001 3.000000
36.379002 25.475000 3.000000
37.077999 24.240999 3.000000
36.358002 23.020000 3.000000
37.056000 21.785000 3.000000
36.337002 20.563999 3.000000
37.035000 19.330000 3.000000
36.316002 18.108000 3.000000
37.014000 16.874001 3.000000
36.294998 15.652000 3.000000
36.993000 14.418000 3.000000
36.272999 13.196000 3.000000
36.972000 11.962000 3.000000
36.251999 10.740000 3.000000
36.951000 9.506000 3.000000
36.230999 8.284000 3.000000
36.929001 7.050000 3.000000
36.209999 5.828000 3.000000
36.908001 4.594000 3.000000
36.188999 3.372000 3.000000
36.887001 2.138000 3.000000
36.167999 0.916000 3.000000
39.575001 67.200996 3.000000
38.855000 65.980003 3.000000
39.554001 64.746002 3.000000
38.834000 63.523998 3.000000
39.532001 62.290001 3.000000
38.813000 61.068001 3.000000
39.511002 59.834000 3.000000
38.792000 58.612000 3.000000
39.490002 57.377998 3.000000
38.771000 56.155998 3.000000
39.469002 54.922001 3.000000
38.749001 53.700001 3.000000
39.448002 52.466000 3.000000
38.728001 51.244000 3.000000
39.426998 50.009998 3.000000
38.707001 48.787998 3.000000
39.404999 47.554001 3.000000
38.686001 46.332001 3.000000
39.383999 45.098000 3.000000
38.665001 43.876000 3.000000
39.362999 42.641998 3.000000
38.644001 41.421002 3.000000
39.341999 40.186001 3.000000
38.622002 38.965000 3.000000
39.320999 37.730999 3.000000
38.601002 36.508999 3.000000
39.299999 35.275002 3.000000
38.580002 34.053001 3.000000
39.278000 32.819000 3.000000
38.558998 31.597000 3.000000
39.257000 30.363001 3.000000
38.537998 29.141001 3.000000
39.236000 27.907000 3.000000
38.516998 26.684999 3.000000
39.215000 25.451000 3.000000
38.494999 24.229000 3.000000
39.194000 22.995001 3.000000
38.473999 21.773001 3.000000
39.173000 20.539000 3.000000
38.452999 19.316999 3.000000
39.152000 18.083000 3.000000
38.431999 16.861000 3.000000
39.130001 15.627000 3.000000
38.410999 14.406000 3.000000
39.109001 13.171000 3.000000
38.389999 11.950000 3.000000
39.088001 10.716000 3.000000
38.368000 9.494001 3.000000
39.067001 8.260000 3.000000
38.347000 7.038000 3.000000
39.046001 5.804000 3.000000
38.326000 4.582000 3.000000
39.025002 3.348000 3.000000
38.305000 2.126000 3.000000
39.002998 0.892000 3.000000
41.733002 70.866997 3.000000
41.014000 69.644997 3.000000
41.712002 68.411003 3.000000
40.993000 67.189003 3.000000
41.691002 65.955002 3.000000
40.972000 64.733002 3.000000
41.669998 63.499001 3.000000
40.950001 62.277000 3.000000
41.648998 61.042999 3.000000
40.929001 59.821999 3.000000
41.627998 58.587002 3.000000
40.908001 57.366001 3.000000
41.605999 56.132000 3.000000
40.887001 54.910000 3.000000
41.584999 53.675999 3.000000
40.866001 52.453999 3.000000
41.563999 51.220001 3.000000
40.845001 49.998001 3.000000
41.542999 48.764000 3.000000
40.823002 47.542000 3.000000
41.521999 46.307999 3.000000
40.801998 45.085999 3.000000
41.500999 43.852001 3.000000
40.780998 42.630001 3.000000
41.479000 41.396000 3.000000
40.759998 40.174000 3.000000
41.458000 38.939999 3.000000
40.738998 37.717999 3.000000
41.437000 36.484001 3.000000
40.717999 35.262001 3.000000
41.416000 34.028000 3.000000
40.695999 32.806999 3.000000
41.395001 31.572001 3.000000
40.674999 30.351000 3.000000
41.374001 29.117001 3.000000
40.653999 27.895001 3.000000
41.352001 26.660999 3.000000
40.632999 25.438999 3.000000
41.331001 24.205000 3.000000
40.612000 22.983000 3.000000
41.310001 21.749001 3.000000
40.591000 20.527000 3.000000
41.289001 19.292999 3.000000
40.569000 18.070999 3.000000
41.268002 16.837000 3.000000
40.548000 15.615000 3.000000
41.247002 14.381000 3.000000
40.527000 13.159000 3.000000
41.224998 11.925000 3.000000
40.506000 10.703000 3.000000
41.203999 9.469000 3.000000
40.485001 8.247000 3.000000
41.182999 7.013000 3.000000
40.464001 5.792000 3.000000
41.161999 4.557000 3.000000
40.442001 3.336000 3.000000
41.140999 2.102000 3.000000
40.421002 0.880000 3.000000
43.891998 74.532997 3.000000
43.172001 73.310997 3.000000
43.870998 72.077004 3.000000
43.151001 70.855003 3.000000
43.849999 69.621002 3.000000
43.130001 68.399002 3.000000
43.828999 67.165001 3.000000
43.109001 65.943001 3.000000
43.806999 64.709000 3.000000
43.088001 63.487000 3.000000
43.785999 62.252998 3.000000
43.067001 61.030998 3.000000
43.764999 59.797001 3.000000
43.046001 58.575001 3.000000
43.744000 57.341000 3.000000
43.023998 56.119000 3.000000
43.723000 54.884998 3.000000
43.002998 53.662998 3.000000
43.702000 52.429001 3.000000
42.981998 51.208000 3.000000
43.680000 49.973000 3.000000
42.960999 48.751999 3.000000
43.659000 47.518002 3.000000
42.939999 46.296001 3.000000
43.638000 45.062000 3.000000
42.918999 43.840000 3.000000
43.617001 42.605999 3.000000
42.896999 41.383999 3.000000
43.596001 40.150002 3.000000
42.876000 38.928001 3.000000
43.575001 37.694000 3.000000
42.855000 36.472000 3.000000
43.553001 35.237999 3.000000
42.834000 34.015999 3.000000
43.532001 32.782001 3.000000
42.813000 31.559999 3.000000
43.511002 30.326000 3.000000
42.792000 29.104000 3.000000
43.490002 27.870001 3.000000
42.770001 26.648001 3.000000
43.469002 25.414000 3.000000
42.749001 24.193001 3.000000
43.448002 22.958000 3.000000
42.728001 21.736999 3.000000
43.425999 20.503000 3.000000
42.707001 19.281000 3.000000
43.404999 18.047001 3.000000
42.686001 16.825001 3.000000
43.383999 15.591000 3.000000
42.665001 14.369000 3.000000
43.362999 13.135000 3.000000
42.643002 11.913000 3.000000
43.341999 10.679000 3.000000
42.622002 9.457000 3.000000
43.320999 8.223000 3.000000
42.601002 7.001000 3.000000
43.299000 5.767000 3.000000
42.580002 4.545000 3.000000
43.278000 3.311000 3.000000
42.558998 2.089000 3.000000
43.257000 0.855000 3.000000
46.050999 78.197998 3.000000
45.331001 76.975998 3.000000
46.028999 75.741997 3.000000
45.310001 74.519997 3.000000
46.007999 73.286003 3.000000
45.289001 72.064003 3.000000
45.987000 70.830002 3.000000
45.268002 69.609001 3.000000
45.966000 68.374001 3.000000
45.245998 67.153000 3.000000
45.945000 65.918999 3.000000
45.224998 64.696999 3.000000
45.924000 63.463001 3.000000
45.203999 62.241001 3.000000
45.903000 61.007000 3.000000
45.182999 59.785000 3.000000
45.881001 58.550999 3.000000
45.161999 57.328999 3.000000
45.860001 56.095001 3.000000
45.140999 54.873001 3.000000
45.839001 53.639000 3.000000
45.119000 52.417000 3.000000
45.818001 51.182999 3.000000
45.098000 49.960999 3.000000
45.797001 48.727001 3.000000
45.077000 47.505001 3.000000
45.776001 46.271000 3.000000
45.056000 45.049000 3.000000
45.754002 43.814999 3.000000
45.035000 42.594002 3.000000
45.733002 41.359001 3.000000
45.014000 40.138000 3.000000
45.712002 38.903999 3.000000
44.992001 37.681999 3.000000
45.691002 36.448002 3.000000
44.971001 35.226002 3.000000
45.669998 33.992001 3.000000
44.950001 32.770001 3.000000
45.648998 31.535999 3.000000
44.929001 30.313999 3.000000
45.626999 29.080000 3.000000
44.908001 27.858000 3.000000
45.605999 26.624001 3.000000
44.887001 25.402000 3.000000
45.584999 24.167999 3.000000
44.866001 22.945999 3.000000
45.563999 21.712000 3.000000
44.844002 20.490000 3.000000
45.542999 19.256000 3.000000
44.823002 18.034000 3.000000
45.521999 16.799999 3.000000
44.801998 15.579000 3.000000
45.500000 14.344000 3.000000
44.780998 13.123000 3.000000
45.479000 11.889000 3.000000
44.759998 10.667000 3.000000
45.458000 9.433000 3.000000
44.738998 8.211001 3.000000
45.437000 6.977000 3.000000
44.716999 5.755000 3.000000
45.416000 4.521000 3.000000
44.695999 3.299000 3.000000
45.395001 2.065000 3.000000
44.674999 0.843000 3.000000
48.209000 81.863998 3.000000
47.490002 80.641998 3.000000
48.188000 79.407997 3.000000
47.469002 78.185997 3.000000
48.167000 76.952004 3.000000
47.446999 75.730003 3.000000
48.146000 74.496002 3.000000
47.425999 73.274002 3.000000
48.125000 72.040001 3.000000
47.404999 70.818001 3.000000
48.103001 69.584000 3.000000
47.383999 68.361999 3.000000
48.082001 67.127998 3.000000
47.362999 65.905998 3.000000
48.061001 64.671997 3.000000
47.341999 63.450001 3.000000
48.040001 62.216000 3.000000
47.320000 60.994999 3.000000
48.019001 59.759998 3.000000
47.299000 58.539001 3.000000
47.998001 57.305000 3.000000
47.278000 56.083000 3.000000
47.976002 54.848999 3.000000
47.257000 53.626999 3.000000
47.955002 52.393002 3.000000
47.236000 51.171001 3.000000
47.933998 49.937000 3.000000
47.215000 48.715000 3.000000
47.912998 47.480999 3.000000
47.193001 46.258999 3.000000
47.891998 45.025002 3.000000
47.172001 43.803001 3.000000
47.870998 42.569000 3.000000
47.151001 41.347000 3.000000
47.848999 40.112999 3.000000
47.130001 38.890999 3.000000
47.827999 37.657001 3.000000
47.109001 36.435001 3.000000
47.806999 35.201000 3.000000
47.088001 33.980000 3.000000
47.785999 32.744999 3.000000
47.066002 31.524000 3.000000
47.764999 30.290001 3.000000
47.044998 29.068001 3.000000
47.744000 27.834000 3.000000
47.023998 26.611999 3.000000
47.723000 25.378000 3.000000
47.002998 24.156000 3.000000
47.701000 22.922001 3.000000
46.981998 21.700001 3.000000
47.680000 20.466000 3.000000
46.960999 19.244000 3.000000
47.659000 18.010000 3.000000
46.938999 16.788000 3.000000
47.638000 15.554000 3.000000
46.917999 14.332000 3.000000
47.617001 13.098000 3.000000
46.896999 11.876000 3.000000
47.596001 10.642000 3.000000
46.876000 9.420000 3.000000
47.574001 8.186000 3.000000
46.855000 6.965000 3.000000
47.553001 5.730000 3.000000
46.834000 4.509000 3.000000
47.532001 3.275000 3.000000
46.813000 2.053000 3.000000
47.511002 0.819000 3.000000
50.368000 85.528999 3.000000
49.647999 84.306999 3.000000
50.347000 83.072998 3.000000
49.626999 81.850998 3.000000
50.326000 80.616997 3.000000
49.605999 79.396004 3.000000
50.304001 78.161003 3.000000
49.584999 76.940002 3.000000
50.283001 75.706001 3.000000
49.563999 74.484001 3.000000
50.262001 73.250000 3.000000
49.542999 72.028000 3.000000
50.241001 70.793999 3.000000
49.521000 69.571999 3.000000
50.220001 68.337997 3.000000
49.500000 67.115997 3.000000
50.199001 65.882004 3.000000
49.479000 64.660004 3.000000
50.176998 63.425999 3.000000
49.458000 62.203999 3.000000
50.155998 60.970001 3.000000
49.437000 59.748001 3.000000
50.134998 58.514000 3.000000
49.416000 57.292000 3.000000
50.113998 56.057999 3.000000
49.394001 54.835999 3.000000
50.092999 53.602001 3.000000
49.373001 52.381000 3.000000
50.071999 51.146000 3.000000
49.352001 49.924999 3.000000
50.049999 48.691002 3.000000
49.331001 47.469002 3.000000
50.028999 46.235001 3.000000
49.310001 45.013000 3.000000
50.007999 43.778999 3.000000
49.289001 42.556999 3.000000
49.987000 41.323002 3.000000
49.266998 40.101002 3.000000
49.966000 38.867001 3.000000
49.245998 37.645001 3.000000
49.945000 36.410999 3.000000
49.224998 35.188999 3.000000
49.923000 33.955002 3.000000
49.203999 32.733002 3.000000
49.902000 31.499001 3.000000
49.182999 30.277000 3.000000
49.881001 29.042999 3.000000
49.161999 27.820999 3.000000
49.860001 26.587000 3.000000
49.139999 25.365999 3.000000
49.839001 24.131000 3.000000
49.119000 22.910000 3.000000
49.818001 21.676001 3.000000
49.098000 20.454000 3.000000
49.796002 19.219999 3.000000
49.077000 17.997999 3.000000
49.775002 16.764000 3.000000
49.056000 15.542000 3.000000
49.754002 14.308000 3.000000
49.035000 13.086000 3.000000
49.733002 11.852000 3.000000
49.013000 10.630000 3.000000
49.712002 9.396000 3.000000
48.992001 8.174000 3.000000
49.691002 6.940000 3.000000
48.971001 5.718000 3.000000
49.669998 4.484000 3.000000
48.950001 3.262000 3.000000
49.647999 2.028000 3.000000
48.929001 0.806000 3.000000
52.527000 89.195000 3.000000
51.806999 87.973000 3.000000
52.505001 86.738998 3.000000
51.785999 85.516998 3.000000
52.484001 84.282997 3.000000
51.764999 83.060997 3.000000
52.463001 81.827004 3.000000
51.743000 80.605003 3.000000
52.442001 79.371002 3.000000
51.722000 78.149002 3.000000
52.421002 76.915001 3.000000
51.701000 75.693001 3.000000
52.400002 74.459000 3.000000
51.680000 73.236999 3.000000
52.377998 72.002998 3.000000
51.659000 70.780998 3.000000
52.356999 69.546997 3.000000
51.638000 68.325996 3.000000
52.335999 67.092003 3.000000
51.617001 65.870003 3.000000
52.314999 64.636002 3.000000
51.595001 63.414001 3.000000
52.293999 62.180000 3.000000
51.574001 60.958000 3.000000
52.272999 59.723999 3.000000
51.553001 58.501999 3.000000
52.250999 57.268002 3.000000
51.532001 56.046001 3.000000
52.230000 54.812000 3.000000
51.511002 53.590000 3.000000
52.209000 52.355999 3.000000
51.490002 51.133999 3.000000
52.188000 49.900002 3.000000
51.467999 48.678001 3.000000
52.167000 47.444000 3.000000
51.446999 46.222000 3.000000
52.146000 44.987999 3.000000
51.425999 43.765999 3.000000
52.124001 42.532001 3.000000
51.404999 41.311001 3.000000
52.103001 40.077000 3.000000
51.383999 38.855000 3.000000
52.082001 37.620998 3.000000
51.362999 36.398998 3.000000
52.061001 35.165001 3.000000
51.341000 33.943001 3.000000
52.040001 32.709000 3.000000
51.320000 31.486999 3.000000
52.019001 30.253000 3.000000
51.299000 29.031000 3.000000
51.997002 27.797001 3.000000
51.278000 26.575001 3.000000
51.976002 25.341000 3.000000
51.257000 24.119000 3.000000
51.955002 22.885000 3.000000
51.236000 21.663000 3.000000
51.933998 20.429001 3.000000
51.214001 19.207001 3.000000
51.912998 17.973000 3.000000
51.193001 16.750999 3.000000
51.891998 15.517000 3.000000
51.172001 14.296000 3.000000
51.869999 13.062000 3.000000
51.151001 11.840000 3.000000
51.848999 10.606000 3.000000
51.130001 9.384000 3.000000
51.827999 8.150000 3.000000
51.109001 6.928000 3.000000
51.806999 5.694000 3.000000
51.087002 4.472000 3.000000
51.785999 3.238000 3.000000
51.066002 2.016000 3.000000
51.764999 0.782000 3.000000
54.685001 92.860001 3.000000
53.966000 91.638001 3.000000
54.664001 90.403999 3.000000
53.944000 89.181999 3.000000
54.643002 87.947998 3.000000
53.923000 86.726997 3.000000
54.622002 85.492996 3.000000
53.902000 84.271004 3.000000
54.599998 83.037003 3.000000
53.881001 81.815003 3.000000
54.578999 80.581001 3.000000
53.860001 79.359001 3.000000
54.557999 78.125000 3.000000
53.839001 76.903000 3.000000
54.536999 75.668999 3.000000
53.817001 74.446999 3.000000
54.515999 73.212997 3.000000
53.796002 71.990997 3.000000
54.494999 70.757004 3.000000
53.775002 69.535004 3.000000
54.473999 68.301002 3.000000
53.754002 67.079002 3.000000
54.452000 65.845001 3.000000
53.733002 64.623001 3.000000
54.431000 63.389000 3.000000
53.712002 62.167000 3.000000
54.410000 60.932999 3.000000
53.689999 59.712002 3.000000
54.389000 58.478001 3.000000
53.668999 57.256000 3.000000
54.368000 56.021999 3.000000
53.647999 54.799999 3.000000
54.347000 53.566002 3.000000
53.626999 52.344002 3.000000
54.325001 51.110001 3.000000
53.605999 49.888001 3.000000
54.304001 48.653999 3.000000
53.584999 47.431999 3.000000
54.283001 46.198002 3.000000
53.563999 44.976002 3.000000
54.262001 43.742001 3.000000
53.542000 42.520001 3.000000
54.241001 41.285999 3.000000
53.521000 40.063999 3.000000
54.220001 38.830002 3.000000
53.500000 37.608002 3.000000
54.198002 36.374001 3.000000
53.479000 35.152000 3.000000
54.176998 33.917999 3.000000
53.458000 32.696999 3.000000
54.155998 31.462999 3.000000
53.437000 30.240999 3.000000
54.134998 29.007000 3.000000
53.415001 27.785000 3.000000
54.113998 26.551001 3.000000
53.394001 25.329000 3.000000
54.092999 24.094999 3.000000
53.373001 22.872999 3.000000
54.070999 21.639000 3.000000
53.352001 20.417000 3.000000
54.049999 19.183001 3.000000
53.331001 17.961000 3.000000
54.028999 16.726999 3.000000
53.310001 15.505000 3.000000
54.007999 14.271000 3.000000
53.287998 13.049000 3.000000
53.987000 11.815000 3.000000
53.266998 10.593000 3.000000
53.966000 9.359000 3.000000
53.245998 8.137000 3.000000
53.944000 6.903000 3.000000
53.224998 5.682000 3.000000
53.923000 4.448000 3.000000
53.203999 3.226000 3.000000
53.902000 1.992000 3.000000
53.182999 0.770000 3.000000
56.844002 96.526001 3.000000
56.124001 95.304001 3.000000
56.823002 94.070000 3.000000
56.103001 92.848000 3.000000
56.800999 91.613998 3.000000
56.082001 90.391998 3.000000
56.779999 89.157997 3.000000
56.061001 87.935997 3.000000
56.758999 86.702004 3.000000
56.040001 85.480003 3.000000
56.737999 84.246002 3.000000
56.018002 83.024002 3.000000
56.716999 81.790001 3.000000
55.997002 80.568001 3.000000
56.695999 79.334000 3.000000
55.976002 78.112999 3.000000
56.674000 76.877998 3.000000
55.955002 75.656998 3.000000
56.653000 74.422996 3.000000
55.933998 73.200996 3.000000
56.632000 71.967003 3.000000
55.912998 70.745003 3.000000
56.611000 69.511002 3.000000
55.890999 68.289001 3.000000
56.590000 67.055000 3.000000
55.869999 65.833000 3.000000
56.569000 64.598999 3.000000
55.848999 63.376999 3.000000
56.547001 62.143002 3.000000
55.827999 60.921001 3.000000
56.526001 59.687000 3.000000
55.806999 58.465000 3.000000
56.505001 57.230999 3.000000
55.785999 56.008999 3.000000
56.484001 54.775002 3.000000