file written by TR
1.000000
129.750275 0.000000 0.000000
64.875137 112.367034 0.000000
0.000000 0.000000 15.000000
Type1
11164
Cartesian
0.721000 1.221000 3.000000
0.000000 0.000000 3.000000
2.882000 4.885000 3.000000
2.162000 3.664000 3.000000
2.859000 2.429000 3.000000
2.138000 1.208000 3.000000
5.044000 8.549000 3.000000
4.323000 7.327000 3.000000
5.021000 6.093000 3.000000
4.300000 4.872000 3.000000
4.998000 3.637000 3.000000
4.277000 2.416000 3.000000
4.974000 1.181000 3.000000
7.206000 12.212000 3.000000
6.485000 10.991000 3.000000
7.183000 9.756000 3.000000
6.462000 8.535000 3.000000
7.159000 7.301000 3.000000
6.439000 6.079000 3.000000
7.136000 4.845000 3.000000
6.415000 3.623000 3.000000
7.113000 2.389000 3.000000
6.392000 1.168000 3.000000
9.367000 15.876000 3.000000
8.647000 14.655000 3.000000
9.344000 13.420000 3.000000
8.624000 12.199000 3.000000
9.321000 10.964000 3.000000
8.600000 9.743000 3.000000
9.298000 8.508000 3.000000
8.577000 7.287000 3.000000
9.275000 6.052000 3.000000
8.554000 4.831000 3.000000
9.251000 3.597000 3.000000
8.531000 2.375000 3.000000
9.228000 1.141000 3.000000
11.529000 19.540001 3.000000
10.809000 18.319000 3.000000
11.506000 17.084000 3.000000
10.785000 15.863000 3.000000
11.483000 14.628000 3.000000
10.762000 13.407000 3.000000
11.459000 12.172000 3.000000
10.739000 10.951000 3.000000
11.436000 9.716000 3.000000
10.716000 8.495000 3.000000
11.413000 7.260000 3.000000
10.692000 6.039000 3.000000
11.390000 4.804000 3.000000
10.669000 3.583000 3.000000
11.367000 2.349000 3.000000
10.646000 1.127000 3.000000
13.691000 23.202999 3.000000
12.970000 21.982000 3.000000
13.668000 20.747999 3.000000
12.947000 19.525999 3.000000
13.644000 18.292000 3.000000
12.924000 17.070000 3.000000
13.621000 15.836001 3.000000
12.901000 14.615000 3.000000
13.598000 13.380000 3.000000
12.877000 12.159000 3.000000
13.575000 10.924000 3.000000
12.854000 9.703000 3.000000
13.551000 8.468000 3.000000
12.831000 7.247000 3.000000
13.528000 6.012000 3.000000
12.808000 4.791000 3.000000
13.505000 3.556000 3.000000
12.784000 2.335000 3.000000
13.482000 1.100000 3.000000
15.853000 26.867001 3.000000
15.132000 25.646000 3.000000
15.829000 24.410999 3.000000
15.109000 23.190001 3.000000
15.806000 21.955000 3.000000
15.086000 20.733999 3.000000
15.783000 19.499001 3.000000
15.062000 18.278000 3.000000
15.760000 17.044001 3.000000
15.039000 15.822000 3.000000
15.736000 14.588000 3.000000
15.016000 13.366000 3.000000
15.713000 12.132000 3.000000
14.993000 10.911000 3.000000
15.690000 9.676000 3.000000
14.969000 8.455000 3.000000
15.667000 7.220000 3.000000
14.946000 5.999000 3.000000
15.643000 4.764000 3.000000
14.923000 3.543000 3.000000
15.620000 2.308000 3.000000
14.900000 1.087000 3.000000
18.014000 30.531000 3.000000
17.294001 29.309999 3.000000
17.990999 28.075001 3.000000
17.271000 26.854000 3.000000
17.968000 25.619000 3.000000
17.247000 24.398001 3.000000
17.945000 23.163000 3.000000
17.224001 21.941999 3.000000
17.921000 20.707001 3.000000
17.201000 19.486000 3.000000
17.898001 18.250999 3.000000
17.177999 17.030001 3.000000
17.875000 15.796000 3.000000
17.153999 14.574000 3.000000
17.851999 13.340000 3.000000
17.131000 12.118000 3.000000
17.827999 10.884000 3.000000
17.108000 9.663000 3.000000
17.805000 8.428000 3.000000
17.084999 7.207000 3.000000
17.782000 5.972000 3.000000
17.061001 4.751000 3.000000
17.759001 3.516000 3.000000
17.038000 2.295000 3.000000
17.735001 1.060000 3.000000
20.176001 34.195000 3.000000
19.455999 32.973000 3.000000
20.153000 31.739000 3.000000
19.431999 30.517000 3.000000
20.129999 29.283001 3.000000
19.409000 28.062000 3.000000
20.106001 26.827000 3.000000
19.386000 25.606001 3.000000
20.083000 24.371000 3.000000
19.363001 23.150000 3.000000
20.059999 21.915001 3.000000
19.339001 20.694000 3.000000
20.037001 19.459000 3.000000
19.316000 18.238001 3.000000
20.013001 17.003000 3.000000
19.292999 15.782000 3.000000
19.990000 14.547000 3.000000
19.270000 13.326000 3.000000
19.966999 12.092000 3.000000
19.246000 10.870000 3.000000
19.944000 9.636000 3.000000
19.223000 8.414000 3.000000
19.920000 7.180000 3.000000
19.200001 5.959000 3.000000
19.896999 4.724000 3.000000
19.177000 3.503000 3.000000
19.874001 2.268000 3.000000
19.153000 1.047000 3.000000
22.337999 37.858002 3.000000
21.617001 36.637001 3.000000
22.315001 35.402000 3.000000
21.594000 34.181000 3.000000
22.291000 32.946999 3.000000
21.570999 31.725000 3.000000
22.268000 30.490999 3.000000
21.548000 29.268999 3.000000
22.245001 28.035000 3.000000
21.524000 26.813000 3.000000
22.222000 25.579000 3.000000
21.500999 24.358000 3.000000
22.198000 23.122999 3.000000
21.478001 21.902000 3.000000
22.174999 20.667000 3.000000
21.455000 19.445999 3.000000
22.152000 18.211001 3.000000
21.431000 16.990000 3.000000
22.129000 15.755000 3.000000
21.408001 14.534000 3.000000
22.105000 13.299000 3.000000
21.385000 12.078000 3.000000
22.082001 10.843000 3.000000
21.361999 9.622000 3.000000
22.059000 8.387999 3.000000
21.337999 7.166000 3.000000
22.035999 5.932000 3.000000
21.315001 4.710000 3.000000
22.011999 3.476000 3.000000
21.292000 2.255000 3.000000
21.989000 1.020000 3.000000
24.500000 41.521999 3.000000
23.778999 40.300999 3.000000
24.476000 39.066002 3.000000
23.756000 37.845001 3.000000
24.452999 36.610001 3.000000
23.733000 35.389000 3.000000
24.430000 34.153999 3.000000
23.709000 32.932999 3.000000
24.407000 31.698000 3.000000
23.686001 30.476999 3.000000
24.382999 29.243000 3.000000
23.663000 28.021000 3.000000
24.360001 26.787001 3.000000
23.639999 25.565001 3.000000
24.337000 24.330999 3.000000
23.615999 23.110001 3.000000
24.313999 21.875000 3.000000
23.593000 20.653999 3.000000
24.290001 19.419001 3.000000
23.570000 18.198000 3.000000
24.267000 16.962999 3.000000
23.547001 15.742000 3.000000
24.244000 14.507000 3.000000
23.523001 13.286000 3.000000
24.221001 12.051000 3.000000
23.500000 10.830000 3.000000
24.197001 9.595000 3.000000
23.476999 8.374000 3.000000
24.174000 7.140000 3.000000
23.454000 5.918000 3.000000
24.150999 4.684000 3.000000
23.430000 3.462000 3.000000
24.128000 2.228000 3.000000
23.407000 1.007000 3.000000
26.660999 45.186001 3.000000
25.941000 43.964001 3.000000
26.638001 42.730000 3.000000
25.917999 41.508999 3.000000
26.615000 40.273998 3.000000
25.893999 39.053001 3.000000
26.591999 37.818001 3.000000
25.871000 36.597000 3.000000
26.568001 35.362000 3.000000
25.848000 34.140999 3.000000
26.545000 32.905998 3.000000
25.825001 31.684999 3.000000
26.521999 30.450001 3.000000
25.801001 29.229000 3.000000
26.499001 27.994000 3.000000
25.778000 26.773001 3.000000
26.475000 25.539000 3.000000
25.754999 24.316999 3.000000
26.452000 23.083000 3.000000
25.732000 21.861000 3.000000
26.429001 20.627001 3.000000
25.708000 19.406000 3.000000
26.406000 18.171000 3.000000
25.684999 16.950001 3.000000
26.382000 15.715000 3.000000
25.662001 14.494001 3.000000
26.358999 13.259000 3.000000
25.639000 12.038000 3.000000
26.336001 10.803000 3.000000
25.615000 9.582000 3.000000
26.313000 8.347000 3.000000
25.591999 7.126000 3.000000
26.289000 5.891000 3.000000
25.569000 4.670000 3.000000
26.266001 3.436000 3.000000
25.546000 2.214000 3.000000
26.243000 0.980000 3.000000
28.823000 48.848999 3.000000
28.101999 47.627998 3.000000
28.799999 46.394001 3.000000
28.079000 45.172001 3.000000
28.777000 43.938000 3.000000
28.056000 42.716000 3.000000
28.753000 41.481999 3.000000
28.033001 40.259998 3.000000
28.730000 39.026001 3.000000
28.010000 37.805000 3.000000
28.707001 36.570000 3.000000
27.986000 35.348999 3.000000
28.684000 34.113998 3.000000
27.962999 32.893002 3.000000
28.660000 31.658001 3.000000
27.940001 30.437000 3.000000
28.636999 29.202000 3.000000
27.917000 27.981001 3.000000
28.614000 26.746000 3.000000
27.893000 25.525000 3.000000
28.591000 24.290001 3.000000
27.870001 23.069000 3.000000
28.567000 21.834999 3.000000
27.847000 20.613001 3.000000
28.544001 19.379000 3.000000
27.823999 18.157000 3.000000
28.521000 16.923000 3.000000
27.799999 15.702000 3.000000
28.497999 14.467000 3.000000
27.777000 13.246000 3.000000
28.474001 12.011000 3.000000
27.754000 10.790000 3.000000
28.451000 9.555000 3.000000
27.731001 8.334000 3.000000
28.427999 7.099000 3.000000
27.707001 5.878000 3.000000
28.405001 4.643000 3.000000
27.684000 3.422000 3.000000
28.381000 2.187000 3.000000
27.660999 0.966000 3.000000
30.985001 52.513000 3.000000
30.264000 51.292000 3.000000
30.962000 50.056999 3.000000
30.240999 48.835999 3.000000
30.938000 47.601002 3.000000
30.218000 46.380001 3.000000
30.915001 45.145001 3.000000
30.194000 43.924000 3.000000
30.892000 42.689999 3.000000
30.171000 41.467999 3.000000
30.869000 40.234001 3.000000
30.148001 39.012001 3.000000
30.844999 37.778000 3.000000
30.125000 36.556999 3.000000
30.822001 35.321999 3.000000
30.101999 34.101002 3.000000
30.799000 32.866001 3.000000
30.077999 31.645000 3.000000
30.775999 30.410000 3.000000
30.055000 29.188999 3.000000
30.752001 27.954001 3.000000
30.032000 26.733000 3.000000
30.729000 25.497999 3.000000
30.009001 24.277000 3.000000
30.705999 23.042000 3.000000
29.985001 21.820999 3.000000
30.683001 20.587000 3.000000
29.962000 19.365000 3.000000
30.659000 18.131000 3.000000
29.938999 16.909000 3.000000
30.636000 15.675000 3.000000
29.916000 14.454000 3.000000
30.613001 13.219000 3.000000
29.892000 11.998000 3.000000
30.590000 10.763000 3.000000
29.869000 9.542000 3.000000
30.566000 8.307000 3.000000
29.846001 7.086000 3.000000
30.542999 5.851000 3.000000
29.823000 4.630000 3.000000
30.520000 3.395000 3.000000
29.799000 2.174000 3.000000
30.497000 0.939000 3.000000
33.146999 56.176998 3.000000
32.425999 54.956001 3.000000
33.123001 53.721001 3.000000
32.403000 52.500000 3.000000
33.099998 51.264999 3.000000
32.379002 50.043999 3.000000
33.077000 48.808998 3.000000
32.355999 47.588001 3.000000
33.054001 46.353001 3.000000
32.333000 45.132000 3.000000
33.029999 43.896999 3.000000
32.310001 42.675999 3.000000
33.007000 41.441002 3.000000
32.285999 40.220001 3.000000
32.984001 38.986000 3.000000
32.263000 37.764000 3.000000
32.960999 36.529999 3.000000
32.240002 35.307999 3.000000
32.937000 34.074001 3.000000
32.216999 32.853001 3.000000
32.914002 31.618000 3.000000
32.194000 30.396999 3.000000
32.890999 29.162001 3.000000
32.169998 27.941000 3.000000
32.868000 26.705999 3.000000
32.146999 25.485001 3.000000
32.844002 24.250000 3.000000
32.124001 23.028999 3.000000
32.820999 21.794001 3.000000
32.101002 20.573000 3.000000
32.798000 19.337999 3.000000
32.077000 18.117001 3.000000
32.775002 16.882999 3.000000
32.054001 15.661000 3.000000
32.750999 14.427000 3.000000
32.030998 13.205000 3.000000
32.728001 11.971000 3.000000
32.007999 10.750000 3.000000
32.705002 9.515000 3.000000
31.983999 8.294000 3.000000
32.681999 7.059000 3.000000
31.961000 5.838000 3.000000
32.658001 4.603000 3.000000
31.938000 3.382000 3.000000
32.634998 2.147000 3.000000
31.915001 0.926000 3.000000
35.307999 59.841000 3.000000
34.588001 58.619000 3.000000
35.285000 57.384998 3.000000
34.563999 56.162998 3.000000
35.262001 54.929001 3.000000
34.541000 53.707001 3.000000
35.238998 52.473000 3.000000
34.518002 51.251999 3.000000
35.215000 50.016998 3.000000
34.494999 48.796002 3.000000
35.192001 47.561001 3.000000
34.471001 46.340000 3.000000
35.168999 45.104999 3.000000
34.448002 43.883999 3.000000
35.146000 42.648998 3.000000
34.424999 41.428001 3.000000
35.122002 40.193001 3.000000
34.402000 38.972000 3.000000
35.098999 37.737999 3.000000
34.377998 36.515999 3.000000
35.076000 35.282001 3.000000
34.355000 34.060001 3.000000
35.053001 32.826000 3.000000
34.332001 31.604000 3.000000
35.028999 30.370001 3.000000
34.308998 29.149000 3.000000
35.006000 27.914000 3.000000
34.285000 26.693001 3.000000
34.983002 25.458000 3.000000
34.262001 24.236999 3.000000
34.959999 23.002001 3.000000
34.238998 21.781000 3.000000
34.936001 20.546000 3.000000
34.216000 19.325001 3.000000
34.912998 18.090000 3.000000
34.193001 16.869000 3.000000
34.889999 15.634000 3.000000
34.168999 14.413000 3.000000
34.867001 13.179000 3.000000
34.146000 11.957000 3.000000
34.842999 10.723000 3.000000
34.123001 9.501000 3.000000
34.820000 8.267000 3.000000
34.099998 7.046000 3.000000
34.797001 5.811000 3.000000
34.076000 4.590000 3.000000
34.773998 3.355000 3.000000
34.053001 2.134000 3.000000
34.750000 0.899000 3.000000
37.470001 63.504002 3.000000
36.749001 62.283001 3.000000
37.446999 61.048000 3.000000
36.726002 59.827000 3.000000
37.423000 58.591999 3.000000
36.702999 57.370998 3.000000
37.400002 56.137001 3.000000
36.680000 54.915001 3.000000
37.376999 53.681000 3.000000
36.655998 52.459000 3.000000
37.354000 51.224998 3.000000
36.632999 50.004002 3.000000
37.331001 48.769001 3.000000
36.610001 47.548000 3.000000
37.306999 46.313000 3.000000
36.587002 45.091999 3.000000
37.284000 43.856998 3.000000
36.563000 42.636002 3.000000
37.261002 41.401001 3.000000
36.540001 40.180000 3.000000
37.237999 38.945000 3.000000
36.516998 37.723999 3.000000
37.214001 36.488998 3.000000
36.494000 35.268002 3.000000
37.191002 34.034000 3.000000
36.470001 32.812000 3.000000
37.167999 31.577999 3.000000
36.446999 30.356001 3.000000
37.145001 29.122000 3.000000
36.424000 27.900999 3.000000
37.120998 26.666000 3.000000
36.401001 25.445000 3.000000
37.098000 24.209999 3.000000
36.376999 22.989000 3.000000
37.075001 21.754000 3.000000
36.354000 20.533001 3.000000
37.051998 19.298000 3.000000
36.331001 18.077000 3.000000
37.028000 16.841999 3.000000
36.307999 15.621000 3.000000
37.005001 14.386000 3.000000
36.285000 13.165000 3.000000
36.981998 11.931000 3.000000
36.261002 10.709000 3.000000
36.959000 9.475000 3.000000
36.237999 8.253000 3.000000
36.935001 7.019000 3.000000
36.215000 5.798000 3.000000
36.911999 4.563000 3.000000
36.192001 3.342000 3.000000
36.889000 2.107000 3.000000
36.167999 0.886000 3.000000
39.632000 67.167999 3.000000
38.910999 65.946999 3.000000
39.608002 64.711998 3.000000
38.888001 63.491001 3.000000
39.584999 62.256000 3.000000
38.865002 61.035000 3.000000
39.562000 59.799999 3.000000
38.841000 58.578999 3.000000
39.539001 57.344002 3.000000
38.818001 56.123001 3.000000
39.514999 54.888001 3.000000
38.794998 53.667000 3.000000
39.492001 52.432999 3.000000
38.771999 51.210999 3.000000
39.469002 49.977001 3.000000
38.748001 48.755001 3.000000
39.445999 47.521000 3.000000
38.724998 46.299999 3.000000
39.423000 45.064999 3.000000
38.702000 43.844002 3.000000
39.398998 42.609001 3.000000
38.679001 41.388000 3.000000
39.375999 40.153000 3.000000
38.654999 38.931999 3.000000
39.353001 37.696999 3.000000
38.632000 36.476002 3.000000
39.330002 35.241001 3.000000
38.609001 34.020001 3.000000
39.306000 32.785000 3.000000
38.585999 31.563999 3.000000
39.283001 30.330000 3.000000
38.562000 29.108000 3.000000
39.259998 27.874001 3.000000
38.539001 26.652000 3.000000
39.237000 25.417999 3.000000
38.515999 24.197001 3.000000
39.213001 22.962000 3.000000
38.493000 21.740999 3.000000
39.189999 20.506000 3.000000
38.469002 19.285000 3.000000
39.167000 18.049999 3.000000
38.445999 16.829000 3.000000
39.144001 15.594000 3.000000
38.423000 14.373000 3.000000
39.119999 13.137999 3.000000
38.400002 11.917000 3.000000
39.097000 10.682000 3.000000
38.376999 9.461001 3.000000
39.074001 8.227000 3.000000
38.353001 7.005000 3.000000
39.050999 5.771000 3.000000
38.330002 4.549000 3.000000
39.027000 3.315000 3.000000
38.306999 2.094000 3.000000
39.004002 0.859000 3.000000
41.792999 70.832001 3.000000
41.073002 69.610001 3.000000
41.770001 68.376000 3.000000
41.049999 67.154999 3.000000
41.747002 65.919998 3.000000
41.026001 64.698998 3.000000
41.723999 63.464001 3.000000
41.002998 62.243000 3.000000
41.700001 61.007999 3.000000
40.980000 59.786999 3.000000
41.676998 58.551998 3.000000
40.957001 57.331001 3.000000
41.653999 56.096001 3.000000
40.932999 54.875000 3.000000
41.631000 53.639999 3.000000
40.910000 52.418999 3.000000
41.606999 51.185001 3.000000
40.887001 49.963001 3.000000
41.584000 48.729000 3.000000
40.863998 47.507000 3.000000
41.561001 46.272999 3.000000
40.840000 45.050999 3.000000
41.537998 43.817001 3.000000
40.817001 42.596001 3.000000
41.514999 41.361000 3.000000
40.793999 40.139999 3.000000
41.491001 38.904999 3.000000
40.771000 37.683998 3.000000
41.467999 36.449001 3.000000
40.747002 35.228001 3.000000
41.445000 33.993000 3.000000
40.723999 32.771999 3.000000
41.422001 31.537001 3.000000
40.701000 30.316000 3.000000
41.397999 29.080999 3.000000
40.678001 27.860001 3.000000
41.375000 26.625999 3.000000
40.653999 25.403999 3.000000
41.352001 24.170000 3.000000
40.631000 22.948000 3.000000
41.328999 21.714001 3.000000
40.608002 20.493000 3.000000
41.305000 19.257999 3.000000
40.584999 18.037001 3.000000
41.282001 16.802000 3.000000
40.561001 15.581000 3.000000
41.258999 14.346000 3.000000
40.537998 13.125000 3.000000
41.236000 11.890000 3.000000
40.514999 10.669000 3.000000
41.212002 9.434000 3.000000
40.492001 8.213000 3.000000
41.188999 6.978000 3.000000
40.469002 5.757000 3.000000
41.166000 4.523000 3.000000
40.445000 3.301000 3.000000
41.143002 2.067000 3.000000
40.422001 0.845000 3.000000
43.955002 74.495003 3.000000
43.235001 73.274002 3.000000
43.931999 72.039001 3.000000
43.210999 70.818001 3.000000
43.909000 69.584000 3.000000
43.188000 68.361999 3.000000
43.884998 67.127998 3.000000
43.165001 65.905998 3.000000
43.862000 64.671997 3.000000
43.141998 63.451000 3.000000
43.839001 62.216000 3.000000
43.118000 60.994999 3.000000
43.816002 59.759998 3.000000
43.095001 58.539001 3.000000
43.792000 57.304001 3.000000
43.071999 56.083000 3.000000
43.769001 54.848000 3.000000
43.049000 53.626999 3.000000
43.745998 52.391998 3.000000
43.025002 51.171001 3.000000
43.723000 49.936001 3.000000
43.001999 48.715000 3.000000
43.699001 47.480999 3.000000
42.979000 46.258999 3.000000
43.675999 45.025002 3.000000
42.956001 43.803001 3.000000
43.653000 42.569000 3.000000
42.931999 41.348000 3.000000
43.630001 40.112999 3.000000
42.909000 38.891998 3.000000
43.606999 37.657001 3.000000
42.886002 36.436001 3.000000
43.583000 35.201000 3.000000
42.862999 33.980000 3.000000
43.560001 32.744999 3.000000
42.839001 31.524000 3.000000
43.536999 30.289000 3.000000
42.816002 29.068001 3.000000
43.514000 27.833000 3.000000
42.792999 26.611999 3.000000
43.490002 25.378000 3.000000
42.770001 24.156000 3.000000
43.466999 22.922001 3.000000
42.745998 21.700001 3.000000
43.444000 20.466000 3.000000
42.723000 19.245001 3.000000
43.421002 18.010000 3.000000
42.700001 16.789000 3.000000
43.396999 15.554000 3.000000
42.676998 14.333000 3.000000
43.374001 13.098000 3.000000
42.653000 11.877000 3.000000
43.351002 10.642000 3.000000
42.630001 9.421000 3.000000
43.327999 8.186000 3.000000
42.606999 6.965000 3.000000
43.304001 5.730000 3.000000
42.584000 4.509000 3.000000
43.280998 3.275000 3.000000
42.561001 2.053000 3.000000
43.257999 0.819000 3.000000
46.117001 78.158997 3.000000
45.396000 76.938004 3.000000
46.094002 75.703003 3.000000
45.373001 74.482002 3.000000
46.070000 73.247002 3.000000
45.349998 72.026001 3.000000
46.047001 70.791000 3.000000
45.327000 69.570000 3.000000
46.023998 68.334999 3.000000
45.303001 67.113998 3.000000
46.000999 65.879997 3.000000
45.279999 64.657997 3.000000
45.977001 63.424000 3.000000
45.257000 62.202000 3.000000
45.953999 60.967999 3.000000
45.234001 59.747002 3.000000
45.931000 58.512001 3.000000
45.209999 57.291000 3.000000
45.908001 56.056000 3.000000
45.187000 54.834999 3.000000
45.883999 53.599998 3.000000
45.164001 52.379002 3.000000
45.861000 51.144001 3.000000
45.140999 49.923000 3.000000
45.838001 48.688000 3.000000
45.117001 47.466999 3.000000
45.814999 46.231999 3.000000
45.094002 45.011002 3.000000
45.791000 43.777000 3.000000
45.070999 42.555000 3.000000
45.768002 41.320999 3.000000
45.048000 40.098999 3.000000
45.744999 38.865002 3.000000
45.023998 37.644001 3.000000
45.722000 36.409000 3.000000
45.000999 35.188000 3.000000
45.699001 33.952999 3.000000
44.978001 32.731999 3.000000
45.674999 31.497000 3.000000
44.955002 30.275999 3.000000
45.652000 29.041000 3.000000
44.931000 27.820000 3.000000
45.629002 26.584999 3.000000
44.908001 25.364000 3.000000
45.605999 24.129000 3.000000
44.884998 22.908001 3.000000
45.582001 21.674000 3.000000
44.862000 20.452000 3.000000
45.558998 19.218000 3.000000
44.838001 17.996000 3.000000
45.535999 16.761999 3.000000
44.814999 15.541000 3.000000
45.513000 14.306000 3.000000
44.792000 13.085000 3.000000
45.488998 11.850000 3.000000
44.769001 10.629000 3.000000
45.466000 9.394000 3.000000
44.744999 8.173000 3.000000
45.443001 6.938000 3.000000
44.722000 5.717000 3.000000
45.419998 4.482000 3.000000
44.699001 3.261000 3.000000
45.396000 2.026000 3.000000
44.675999 0.805000 3.000000
48.278999 81.822998 3.000000
47.557999 80.601997 3.000000
48.255001 79.366997 3.000000
47.535000 78.146004 3.000000
48.231999 76.911003 3.000000
47.512001 75.690003 3.000000
48.209000 74.455002 3.000000
47.487999 73.234001 3.000000
48.186001 71.999001 3.000000
47.465000 70.778000 3.000000
48.161999 69.542999 3.000000
47.442001 68.321999 3.000000
48.139000 67.086998 3.000000
47.418999 65.865997 3.000000
48.116001 64.632004 3.000000
47.395001 63.410000 3.000000
48.092999 62.175999 3.000000
47.372002 60.953999 3.000000
48.069000 59.720001 3.000000
47.348999 58.498001 3.000000
48.046001 57.264000 3.000000
47.326000 56.042999 3.000000
48.022999 54.807999 3.000000
47.301998 53.587002 3.000000
48.000000 52.352001 3.000000
47.278999 51.131000 3.000000
47.976002 49.896000 3.000000
47.256000 48.674999 3.000000
47.952999 47.439999 3.000000
47.233002 46.219002 3.000000
47.930000 44.984001 3.000000
47.209000 43.763000 3.000000
47.907002 42.528000 3.000000
47.186001 41.306999 3.000000
47.882999 40.073002 3.000000
47.162998 38.851002 3.000000
47.860001 37.617001 3.000000
47.139999 36.395001 3.000000
47.837002 35.160999 3.000000
47.116001 33.939999 3.000000
47.813999 32.705002 3.000000
47.092999 31.483999 3.000000
47.790001 30.249001 3.000000
47.070000 29.028000 3.000000
47.766998 27.792999 3.000000
47.047001 26.572001 3.000000
47.744000 25.337000 3.000000
47.022999 24.115999 3.000000
47.721001 22.881001 3.000000
47.000000 21.660000 3.000000
47.698002 20.424999 3.000000
46.977001 19.204000 3.000000
47.674000 17.969999 3.000000
46.953999 16.747999 3.000000
47.651001 15.514000 3.000000
46.930000 14.292000 3.000000
47.627998 13.058000 3.000000
46.907002 11.837000 3.000000
47.605000 10.602000 3.000000
46.883999 9.381000 3.000000
47.581001 8.146000 3.000000
46.861000 6.925000 3.000000
47.557999 5.690000 3.000000
46.837002 4.469000 3.000000
47.535000 3.234000 3.000000
46.813999 2.013000 3.000000
47.512001 0.778000 3.000000
50.439999 85.486000 3.000000
49.720001 84.264999 3.000000
50.417000 83.030998 3.000000
49.696999 81.808998 3.000000
50.394001 80.574997 3.000000
49.673000 79.352997 3.000000
50.370998 78.119003 3.000000
49.650002 76.898003 3.000000
50.347000 75.663002 3.000000
49.626999 74.442001 3.000000
50.324001 73.207001 3.000000
49.604000 71.986000 3.000000
50.300999 70.751000 3.000000
49.580002 69.529999 3.000000
50.278000 68.294998 3.000000
49.556999 67.073998 3.000000
50.254002 65.838997 3.000000
49.534000 64.617996 3.000000
50.230999 63.382999 3.000000
49.511002 62.161999 3.000000
50.208000 60.928001 3.000000
49.487000 59.706001 3.000000
50.185001 58.472000 3.000000
49.464001 57.250000 3.000000
50.160999 56.015999 3.000000
49.441002 54.794998 3.000000
50.138000 53.560001 3.000000
49.417999 52.339001 3.000000
50.115002 51.104000 3.000000
49.394001 49.882999 3.000000
50.091999 48.647999 3.000000
49.370998 47.426998 3.000000
50.068001 46.192001 3.000000
49.348000 44.971001 3.000000
50.044998 43.736000 3.000000
49.325001 42.514999 3.000000
50.021999 41.279999 3.000000
49.300999 40.058998 3.000000
49.999001 38.825001 3.000000
49.278000 37.603001 3.000000
49.974999 36.369000 3.000000
49.255001 35.146999 3.000000
49.952000 33.912998 3.000000
49.231999 32.692001 3.000000
49.929001 31.457001 3.000000
49.208000 30.236000 3.000000
49.905998 29.000999 3.000000
49.185001 27.780001 3.000000
49.882000 26.545000 3.000000
49.161999 25.323999 3.000000
49.859001 24.089001 3.000000
49.139000 22.868000 3.000000
49.835999 21.632999 3.000000
49.115002 20.412001 3.000000
49.813000 19.177000 3.000000
49.091999 17.955999 3.000000
49.790001 16.722000 3.000000
49.069000 15.500000 3.000000
49.765999 14.266000 3.000000
49.046001 13.044000 3.000000
49.743000 11.810000 3.000000
49.021999 10.589000 3.000000
49.720001 9.354000 3.000000
48.999001 8.133000 3.000000
49.696999 6.898000 3.000000
48.976002 5.677000 3.000000
49.673000 4.442000 3.000000
48.952999 3.221000 3.000000
49.650002 1.986000 3.000000
48.929001 0.765000 3.000000
52.602001 89.150002 3.000000
51.882000 87.929001 3.000000
52.578999 86.694000 3.000000
51.858002 85.473000 3.000000
52.556000 84.237999 3.000000
51.834999 83.016998 3.000000
52.532001 81.781998 3.000000
51.812000 80.560997 3.000000
52.508999 79.327004 3.000000
51.789001 78.105003 3.000000
52.486000 76.871002 3.000000
51.764999 75.649002 3.000000
52.463001 74.415001 3.000000
51.742001 73.194000 3.000000
52.438999 71.959000 3.000000
51.719002 70.737999 3.000000
52.416000 69.502998 3.000000
51.695999 68.281998 3.000000
52.393002 67.046997 3.000000
51.672001 65.825996 3.000000
52.369999 64.591003 3.000000
51.648998 63.369999 3.000000
52.346001 62.134998 3.000000
51.625999 60.914002 3.000000
52.323002 59.679001 3.000000
51.603001 58.458000 3.000000
52.299999 57.223999 3.000000
51.578999 56.001999 3.000000
52.277000 54.768002 3.000000
51.556000 53.546002 3.000000
52.252998 52.312000 3.000000
51.533001 51.091000 3.000000
52.230000 49.855999 3.000000
51.509998 48.634998 3.000000
52.207001 47.400002 3.000000
51.486000 46.179001 3.000000
52.183998 44.944000 3.000000
51.463001 43.723000 3.000000
52.160000 42.487999 3.000000
51.439999 41.266998 3.000000
52.137001 40.032001 3.000000
51.417000 38.811001 3.000000
52.113998 37.576000 3.000000
51.393002 36.355000 3.000000
52.091000 35.120998 3.000000
51.369999 33.898998 3.000000
52.067001 32.665001 3.000000
51.347000 31.443001 3.000000
52.043999 30.209000 3.000000
51.324001 28.988001 3.000000
52.021000 27.753000 3.000000
51.299999 26.532000 3.000000
51.998001 25.297001 3.000000
51.277000 24.076000 3.000000
51.973999 22.841000 3.000000
51.254002 21.620001 3.000000
51.951000 20.385000 3.000000
51.230999 19.164000 3.000000
51.928001 17.929001 3.000000
51.207001 16.708000 3.000000
51.904999 15.473000 3.000000
51.183998 14.252000 3.000000
51.882000 13.018000 3.000000
51.160999 11.796000 3.000000
51.858002 10.562000 3.000000
51.138000 9.340000 3.000000
51.834999 8.106000 3.000000
51.113998 6.885000 3.000000
51.812000 5.650000 3.000000
51.091000 4.429000 3.000000
51.789001 3.194000 3.000000
51.068001 1.973000 3.000000
51.764999 0.738000 3.000000
54.764000 92.814003 3.000000
54.042999 91.593002 3.000000
54.741001 90.358002 3.000000
54.020001 89.137001 3.000000
54.716999 87.902000 3.000000
53.997002 86.681000 3.000000
54.694000 85.445999 3.000000
53.973999 84.224998 3.000000
54.671002 82.989998 3.000000
53.950001 81.768997 3.000000
54.647999 80.533997 3.000000
53.926998 79.313004 3.000000
54.624001 78.079002 3.000000
53.903999 76.857002 3.000000
54.601002 75.623001 3.000000
53.881001 74.401001 3.000000
54.577999 73.167000 3.000000
53.856998 71.945000 3.000000
54.555000 70.710999 3.000000
53.834000 69.489998 3.000000
54.530998 68.254997 3.000000
53.811001 67.033997 3.000000
54.507999 65.799004 3.000000
53.787998 64.578003 3.000000
54.485001 63.342999 3.000000
53.764000 62.122002 3.000000
54.462002 60.887001 3.000000
53.741001 59.666000 3.000000
54.438000 58.431000 3.000000
53.717999 57.209999 3.000000
54.415001 55.976002 3.000000
53.695000 54.754002 3.000000
54.391998 53.520001 3.000000
53.671002 52.298000 3.000000
54.369000 51.063999 3.000000
53.647999 49.841999 3.000000
54.345001 48.608002 3.000000
53.625000 47.387001 3.000000
54.321999 46.152000 3.000000
53.602001 44.931000 3.000000
54.299000 43.695999 3.000000
53.577999 42.474998 3.000000
54.276001 41.240002 3.000000
53.555000 40.019001 3.000000
54.251999 38.784000 3.000000
53.532001 37.563000 3.000000
54.229000 36.327999 3.000000
53.508999 35.106998 3.000000
54.206001 33.872002 3.000000
53.485001 32.651001 3.000000
54.182999 31.417000 3.000000
53.462002 30.195000 3.000000
54.159000 28.961000 3.000000
53.438999 27.739000 3.000000
54.136002 26.504999 3.000000
53.416000 25.284000 3.000000
54.112999 24.049000 3.000000
53.391998 22.827999 3.000000
54.090000 21.593000 3.000000
53.369000 20.372000 3.000000
54.066002 19.136999 3.000000
53.346001 17.916000 3.000000
54.042999 16.681000 3.000000
53.323002 15.460000 3.000000
54.020001 14.225000 3.000000
53.299000 13.004000 3.000000
53.997002 11.769000 3.000000
53.276001 10.548000 3.000000
53.973999 9.314000 3.000000
53.252998 8.092000 3.000000
53.950001 6.858000 3.000000
53.230000 5.636000 3.000000
53.926998 4.402000 3.000000
53.206001 3.181000 3.000000
53.903999 1.946000 3.000000
53.182999 0.725000 3.000000
56.925999 96.477997 3.000000
56.205002 95.255997 3.000000
56.902000 94.022003 3.000000
56.181999 92.800003 3.000000
56.879002 91.566002 3.000000
56.158001 90.345001 3.000000
56.855999 89.110001 3.000000
56.134998 87.889000 3.000000
56.833000 86.653999 3.000000
56.112000 85.432999 3.000000
56.808998 84.197998 3.000000
56.089001 82.976997 3.000000
56.785999 81.741997 3.000000
56.066002 80.521004 3.000000
56.763000 79.286003 3.000000
56.042000 78.065002 3.000000
56.740002 76.830002 3.000000
56.019001 75.609001 3.000000
56.716000 74.375000 3.000000
55.995998 73.153000 3.000000
56.693001 71.918999 3.000000
55.973000 70.696999 3.000000
56.669998 69.462998 3.000000
55.949001 68.241997 3.000000
56.646999 67.007004 3.000000
55.925999 65.786003 3.000000
56.623001 64.551002 3.000000
55.903000 63.330002 3.000000
56.599998 62.095001 3.000000
55.880001 60.874001 3.000000
56.577000 59.639000 3.000000
55.855999 58.417999 3.000000
56.554001 57.182999 3.000000
55.833000 55.962002 3.000000
56.529999 54.727001 3.000000