file written by TR
1.000000
14.939265 0.000000 0.000000
7.469633 12.937783 0.000000
0.000000 0.000000 15.000000
Type1
148
Cartesian
0.808000 1.166000 3.000000
0.000000 0.000000 3.000000
3.230000 4.662000 3.000000
2.423000 3.497000 3.000000
3.028000 2.215000 3.000000
2.221000 1.049000 3.000000
5.653000 8.159000 3.000000
4.845000 6.993000 3.000000
5.451000 5.711000 3.000000
4.643000 4.546000 3.000000
5.249000 3.264000 3.000000
4.441000 2.098000 3.000000
5.047000 0.816000 3.000000
8.075000 11.656000 3.000000
7.268000 10.490000 3.000000
7.873000 9.208000 3.000000
7.066000 8.042000 3.000000
7.672000 6.760000 3.000000
6.864000 5.595000 3.000000
7.470000 4.313000 3.000000
6.662000 3.147000 3.000000
7.268000 1.865000 3.000000
6.460000 0.699000 3.000000
10.296000 12.705000 3.000000
9.488000 11.539000 3.000000
10.094000 10.257000 3.000000
9.287000 9.091000 3.000000
9.892000 7.809000 3.000000
9.085000 6.644000 3.000000
9.690000 5.362000 3.000000
8.883000 4.196000 3.000000
9.488000 2.914000 3.000000
8.681000 1.748000 3.000000
9.287000 0.466000 3.000000
11.709000 12.588000 3.000000
12.315000 11.306000 3.000000
11.507000 10.140000 3.000000
12.113000 8.858000 3.000000
11.305000 7.693000 3.000000
11.911000 6.411000 3.000000
11.104000 5.245000 3.000000
11.709000 3.963000 3.000000
10.902000 2.797000 3.000000
11.507000 1.515000 3.000000
10.700000 0.350000 3.000000
14.536000 12.355000 3.000000
13.728000 11.189000 3.000000
14.334000 9.907000 3.000000
13.526000 8.742000 3.000000
14.132000 7.460000 3.000000
13.324000 6.294000 3.000000
13.930000 5.012000 3.000000
13.122000 3.846000 3.000000
13.728000 2.564000 3.000000
12.920000 1.399000 3.000000
13.526000 0.117000 3.000000
15.948265 12.238000 3.000000
16.554266 10.956000 3.000000
15.747265 9.791000 3.000000
16.352264 8.509000 3.000000
15.545265 7.343000 3.000000
16.150265 6.061000 3.000000
15.343265 4.895000 3.000000
15.948265 3.613000 3.000000
15.141265 2.448000 3.000000
18.775265 12.005000 3.000000
17.967266 10.840000 3.000000
18.573265 9.558000 3.000000
17.765265 8.392000 3.000000
18.371265 7.110000 3.000000
17.563265 5.944000 3.000000
20.188265 11.889000 3.000000
20.794266 10.607000 3.000000
19.986265 9.441000 3.000000
0.000000 0.000000 6.400000
2.624000 2.681000 6.400000
2.019000 1.399000 6.400000
2.826000 0.233000 6.400000
4.441000 6.527000 6.400000
3.836000 5.245000 6.400000
4.643000 4.079000 6.400000
4.038000 2.797000 6.400000
4.845000 1.632000 6.400000
4.240000 0.350000 6.400000
6.258000 10.374000 6.400000
5.653000 9.091000 6.400000
6.460000 7.926000 6.400000
5.855000 6.644000 6.400000
6.662000 5.478000 6.400000
6.056000 4.196000 6.400000
6.864000 3.030000 6.400000
6.258000 1.748000 6.400000
7.066000 0.583000 6.400000
8.277000 11.772000 6.400000
7.672000 10.490000 6.400000
8.479000 9.325000 6.400000
7.873000 8.042000 6.400000
8.681000 6.877000 6.400000
8.075000 5.595000 6.400000
8.883000 4.429000 6.400000
8.277000 3.147000 6.400000
9.085000 1.981000 6.400000
8.479000 0.699000 6.400000
9.690000 11.889000 6.400000
10.498000 10.723000 6.400000
9.892000 9.441000 6.400000
10.700000 8.276000 6.400000
10.094000 6.993000 6.400000
10.902000 5.828000 6.400000
10.296000 4.546000 6.400000
11.104000 3.380000 6.400000
10.498000 2.098000 6.400000
11.305000 0.932000 6.400000
12.517000 12.122000 6.400000
11.911000 10.840000 6.400000
12.719000 9.674000 6.400000
12.113000 8.392000 6.400000
12.920000 7.227000 6.400000
12.315000 5.944000 6.400000
13.122000 4.779000 6.400000
12.517000 3.497000 6.400000
13.324000 2.331000 6.400000
12.719000 1.049000 6.400000
13.930000 12.238000 6.400000
14.737001 11.073000 6.400000
14.132000 9.791000 6.400000
14.334000 7.343000 6.400000
14.536000 4.895000 6.400000
14.737001 2.448000 6.400000
14.939265 8.625000 6.400000
15.141265 6.177000 6.400000
15.343265 3.730000 6.400000
15.545265 1.282000 6.400000
16.756266 12.472000 6.400000
16.150265 11.189000 6.400000
16.958265 10.024000 6.400000
16.352264 8.742000 6.400000
17.160265 7.576000 6.400000
16.554266 6.294000 6.400000
17.362265 5.128000 6.400000
16.756266 3.846000 6.400000
18.169266 12.588000 6.400000
18.977264 11.423000 6.400000
18.371265 10.140000 6.400000
19.179264 8.975000 6.400000
18.573265 7.693000 6.400000
20.995266 12.821000 6.400000
20.390266 11.539000 6.400000
