file written by TR
1.000000
36.179138 0.000000 0.000000
18.089569 31.332053 0.000000
0.000000 0.000000 15.000000
Type1
868
Cartesian
0.750000 1.203000 3.000000
0.000000 0.000000 3.000000
3.001000 4.813000 3.000000
2.251000 3.610000 3.000000
2.918000 2.358000 3.000000
2.167000 1.155000 3.000000
5.252000 8.423000 3.000000
4.502000 7.219000 3.000000
5.168000 5.968000 3.000000
4.418000 4.765000 3.000000
5.085000 3.513000 3.000000
4.335000 2.310000 3.000000
5.002000 1.059000 3.000000
7.503000 12.032000 3.000000
6.752000 10.829000 3.000000
7.419000 9.578000 3.000000
6.669000 8.374000 3.000000
7.336000 7.123000 3.000000
6.586000 5.920000 3.000000
7.253000 4.669000 3.000000
6.502000 3.465000 3.000000
7.169000 2.214000 3.000000
6.419000 1.011000 3.000000
9.753000 15.642000 3.000000
9.003000 14.439000 3.000000
9.670000 13.187000 3.000000
8.920000 11.984000 3.000000
9.587000 10.733000 3.000000
8.836001 9.530000 3.000000
9.503000 8.278000 3.000000
8.753000 7.075000 3.000000
9.420000 5.824000 3.000000
8.670000 4.620000 3.000000
9.337000 3.369000 3.000000
8.586001 2.166000 3.000000
9.253000 0.914000 3.000000
12.004000 19.252001 3.000000
11.254000 18.048000 3.000000
11.921000 16.797001 3.000000
11.171000 15.594000 3.000000
11.837000 14.342000 3.000000
11.087000 13.139000 3.000000
11.754000 11.888000 3.000000
11.004000 10.685000 3.000000
11.671000 9.433000 3.000000
10.920000 8.230000 3.000000
11.587000 6.979000 3.000000
10.837000 5.775000 3.000000
11.504000 4.524000 3.000000
10.754000 3.321000 3.000000
11.421000 2.070000 3.000000
10.670000 0.866000 3.000000
14.255000 22.861000 3.000000
13.505000 21.658001 3.000000
14.172000 20.407000 3.000000
13.421000 19.204000 3.000000
14.088000 17.952000 3.000000
13.338000 16.749001 3.000000
14.005000 15.498000 3.000000
13.255000 14.294000 3.000000
13.921000 13.043000 3.000000
13.171000 11.840000 3.000000
13.838000 10.588000 3.000000
13.088000 9.385000 3.000000
13.755000 8.134000 3.000000
13.004000 6.931000 3.000000
13.671000 5.679000 3.000000
12.921000 4.476000 3.000000
13.588000 3.225000 3.000000
12.838000 2.021000 3.000000
13.505000 0.770000 3.000000
16.506000 26.471001 3.000000
15.755000 25.268000 3.000000
16.422001 24.016001 3.000000
15.672000 22.813000 3.000000
16.339001 21.562000 3.000000
15.589000 20.358999 3.000000
16.256000 19.107000 3.000000
15.505000 17.903999 3.000000
16.172001 16.653000 3.000000
15.422000 15.449000 3.000000
16.089001 14.198000 3.000000
15.339000 12.995000 3.000000
16.006000 11.744001 3.000000
15.255000 10.540000 3.000000
15.922000 9.289000 3.000000
15.172000 8.086000 3.000000
15.839000 6.834000 3.000000
15.089000 5.631000 3.000000
15.755000 4.380000 3.000000
15.005000 3.177000 3.000000
15.672000 1.925000 3.000000
14.922000 0.722000 3.000000
18.756000 30.080999 3.000000
18.006000 28.877001 3.000000
18.673000 27.625999 3.000000
17.923000 26.423000 3.000000
18.590000 25.172001 3.000000
17.839001 23.968000 3.000000
18.506000 22.716999 3.000000
17.756000 21.514000 3.000000
18.423000 20.261999 3.000000
17.673000 19.059000 3.000000
18.340000 17.808001 3.000000
17.589001 16.605000 3.000000
18.256000 15.353000 3.000000
17.506000 14.150000 3.000000
18.173000 12.899000 3.000000
17.423000 11.695000 3.000000
18.090000 10.444000 3.000000
17.339001 9.241000 3.000000
18.006000 7.989000 3.000000
17.256000 6.786000 3.000000
17.923000 5.535000 3.000000
17.173000 4.332000 3.000000
17.839001 3.080000 3.000000
17.089001 1.877000 3.000000
17.756000 0.626000 3.000000
20.924000 31.236000 3.000000
20.174000 30.033001 3.000000
20.841000 28.781000 3.000000
20.090000 27.577999 3.000000
20.757000 26.327000 3.000000
20.007000 25.122999 3.000000
20.674000 23.872000 3.000000
19.924000 22.669001 3.000000
20.590000 21.417000 3.000000
19.840000 20.214001 3.000000
20.507000 18.962999 3.000000
19.757000 17.760000 3.000000
20.424000 16.507999 3.000000
19.673000 15.305000 3.000000
20.340000 14.054000 3.000000
19.590000 12.850000 3.000000
20.257000 11.599000 3.000000
19.507000 10.396000 3.000000
20.174000 9.145001 3.000000
19.423000 7.941000 3.000000
20.090000 6.690000 3.000000
19.340000 5.487000 3.000000
20.007000 4.235000 3.000000
19.257000 3.032000 3.000000
19.924000 1.781000 3.000000
19.173000 0.578000 3.000000
22.341000 31.188000 3.000000
23.007999 29.936001 3.000000
22.257999 28.733000 3.000000
22.924999 27.482000 3.000000
22.174000 26.278000 3.000000
22.841000 25.027000 3.000000
22.091000 23.823999 3.000000
22.757999 22.573000 3.000000
22.007999 21.369000 3.000000
22.674000 20.118000 3.000000
21.924000 18.915001 3.000000
22.591000 17.663000 3.000000
21.841000 16.459999 3.000000
22.507999 15.209000 3.000000
21.757999 14.006000 3.000000
22.424000 12.754000 3.000000
21.674000 11.551000 3.000000
22.341000 10.300000 3.000000
21.591000 9.096000 3.000000
22.257999 7.845000 3.000000
21.507000 6.642000 3.000000
22.174000 5.390000 3.000000
21.424000 4.187000 3.000000
22.091000 2.936000 3.000000
21.341000 1.733000 3.000000
22.007999 0.481000 3.000000
25.174999 31.091000 3.000000
24.424999 29.888001 3.000000
25.091999 28.636999 3.000000
24.341999 27.434000 3.000000
25.009001 26.181999 3.000000
24.257999 24.979000 3.000000
24.924999 23.728001 3.000000
24.174999 22.524000 3.000000
24.841999 21.273001 3.000000
24.091999 20.070000 3.000000
24.759001 18.818001 3.000000
24.007999 17.615000 3.000000
24.674999 16.364000 3.000000
23.924999 15.161000 3.000000
24.591999 13.909000 3.000000
23.841999 12.706000 3.000000
24.507999 11.455000 3.000000
23.757999 10.252000 3.000000
24.424999 9.000000 3.000000
23.674999 7.797000 3.000000
24.341999 6.546000 3.000000
23.591000 5.342000 3.000000
24.257999 4.091000 3.000000
23.507999 2.888000 3.000000
24.174999 1.636000 3.000000
23.424999 0.433000 3.000000
26.593000 31.042999 3.000000
27.259001 29.792000 3.000000
26.509001 28.589001 3.000000
27.176001 27.337000 3.000000
26.426001 26.134001 3.000000
27.093000 24.882999 3.000000
26.341999 23.680000 3.000000
27.009001 22.427999 3.000000
26.259001 21.225000 3.000000
26.926001 19.974001 3.000000
26.176001 18.770000 3.000000
26.843000 17.518999 3.000000
26.091999 16.316000 3.000000
26.759001 15.064000 3.000000
26.009001 13.861000 3.000000
26.676001 12.610000 3.000000
25.926001 11.407000 3.000000
26.593000 10.155000 3.000000
25.841999 8.952000 3.000000
26.509001 7.701000 3.000000
25.759001 6.497000 3.000000
26.426001 5.246000 3.000000
25.676001 4.043000 3.000000
26.341999 2.791000 3.000000
25.591999 1.588000 3.000000
26.259001 0.337000 3.000000
29.427000 30.947001 3.000000
28.677000 29.744000 3.000000
29.343000 28.492001 3.000000
28.593000 27.289000 3.000000
29.260000 26.038000 3.000000
28.510000 24.834999 3.000000
29.177000 23.583000 3.000000
28.426001 22.379999 3.000000
29.093000 21.129000 3.000000
28.343000 19.924999 3.000000
29.010000 18.674000 3.000000
28.260000 17.471001 3.000000
28.927000 16.219999 3.000000
28.176001 15.016000 3.000000
28.843000 13.765000 3.000000
28.093000 12.562000 3.000000
28.760000 11.310000 3.000000
28.010000 10.107000 3.000000
28.677000 8.856000 3.000000
27.926001 7.653000 3.000000
28.593000 6.401000 3.000000
27.843000 5.198000 3.000000
28.510000 3.947000 3.000000
27.760000 2.743000 3.000000
28.426001 1.492000 3.000000
27.676001 0.289000 3.000000
30.844000 30.899000 3.000000
31.511000 29.648001 3.000000
30.761000 28.444000 3.000000
31.427999 27.193001 3.000000
30.677000 25.990000 3.000000
31.344000 24.738001 3.000000
30.594000 23.535000 3.000000
31.261000 22.284000 3.000000
30.511000 21.080999 3.000000
31.177000 19.829000 3.000000
30.427000 18.625999 3.000000
31.094000 17.375000 3.000000
30.344000 16.171000 3.000000
31.011000 14.920000 3.000000
30.260000 13.717000 3.000000
30.927000 12.465000 3.000000
30.177000 11.262000 3.000000
30.844000 10.011000 3.000000
30.094000 8.808000 3.000000
30.761000 7.556000 3.000000
30.010000 6.353000 3.000000
30.677000 5.102000 3.000000
29.927000 3.898000 3.000000
30.594000 2.647000 3.000000
29.844000 1.444000 3.000000
30.511000 0.193000 3.000000
33.678001 30.802999 3.000000
32.928001 29.599001 3.000000
33.595001 28.348000 3.000000
32.845001 27.145000 3.000000
33.512001 25.893000 3.000000
32.761002 24.690001 3.000000
33.428001 23.438999 3.000000
32.678001 22.236000 3.000000
33.345001 20.983999 3.000000
32.595001 19.781000 3.000000
33.261002 18.530001 3.000000
32.511002 17.326000 3.000000
33.178001 16.075001 3.000000
32.428001 14.872000 3.000000
33.095001 13.621000 3.000000
32.344002 12.417000 3.000000
33.011002 11.166000 3.000000
32.261002 9.963000 3.000000
32.928001 8.711001 3.000000
32.178001 7.508000 3.000000
32.845001 6.257000 3.000000
32.094002 5.054000 3.000000
32.761002 3.802000 3.000000
32.011002 2.599000 3.000000
32.678001 1.348000 3.000000
31.928000 0.144000 3.000000
35.095001 30.754999 3.000000
35.762001 29.503000 3.000000
35.012001 28.299999 3.000000
35.679001 27.049000 3.000000
34.929001 25.844999 3.000000
35.596001 24.594000 3.000000
34.845001 23.391001 3.000000
35.512001 22.139000 3.000000
34.762001 20.936001 3.000000
35.429001 19.684999 3.000000
34.679001 18.482000 3.000000
35.346001 17.230000 3.000000
34.595001 16.027000 3.000000
35.262001 14.776000 3.000000
34.512001 13.572000 3.000000
35.179001 12.321000 3.000000
34.429001 11.118000 3.000000
35.095001 9.866000 3.000000
34.345001 8.663000 3.000000
35.012001 7.412000 3.000000
34.262001 6.209000 3.000000
34.929001 4.957000 3.000000
34.178001 3.754000 3.000000
34.845001 2.503000 3.000000
34.095001 1.299000 3.000000
34.762001 0.048000 3.000000
37.930138 30.658001 3.000000
37.179138 29.455000 3.000000
37.846138 28.204000 3.000000
37.096138 27.000000 3.000000
37.763138 25.749001 3.000000
37.013138 24.546000 3.000000
37.680138 23.294001 3.000000
36.929138 22.091000 3.000000
37.596138 20.840000 3.000000
36.846138 19.636999 3.000000
37.513138 18.385000 3.000000
36.763138 17.181999 3.000000
37.429138 15.931000 3.000000
36.679138 14.728000 3.000000
37.346138 13.476000 3.000000
36.596138 12.273000 3.000000
37.263138 11.022000 3.000000
36.512138 9.818000 3.000000
37.179138 8.567000 3.000000
36.429138 7.364000 3.000000
37.096138 6.112000 3.000000
36.346138 4.909000 3.000000
37.013138 3.658000 3.000000
36.262138 2.455000 3.000000
39.347138 30.610001 3.000000
40.014137 29.358999 3.000000
39.263138 28.156000 3.000000
39.930138 26.903999 3.000000
39.180138 25.701000 3.000000
39.847138 24.450001 3.000000
39.097138 23.246000 3.000000
39.764137 21.995001 3.000000
39.013138 20.792000 3.000000
39.680138 19.540001 3.000000
38.930138 18.337000 3.000000
39.597138 17.086000 3.000000
38.847138 15.883000 3.000000
39.513138 14.631000 3.000000
38.763138 13.428000 3.000000
39.430138 12.177000 3.000000
38.680138 10.973000 3.000000
39.347138 9.722000 3.000000
38.597138 8.519000 3.000000
39.263138 7.267000 3.000000
38.513138 6.064000 3.000000
42.181137 30.514000 3.000000
41.431137 29.311001 3.000000
42.098137 28.059000 3.000000
41.347138 26.856001 3.000000
42.014137 25.605000 3.000000
41.264137 24.400999 3.000000
41.931137 23.150000 3.000000
41.181137 21.947001 3.000000
41.848137 20.695999 3.000000
41.097138 19.492001 3.000000
41.764137 18.240999 3.000000
41.014137 17.038000 3.000000
41.681137 15.786000 3.000000
40.931137 14.583000 3.000000
41.598137 13.332000 3.000000
40.847138 12.129000 3.000000
41.514137 10.877000 3.000000
40.764137 9.674000 3.000000
43.598137 30.466000 3.000000
44.265137 29.214001 3.000000
43.515137 28.011000 3.000000
44.182136 26.760000 3.000000
43.432137 25.556999 3.000000
44.098137 24.305000 3.000000
43.348137 23.101999 3.000000
44.015137 21.851000 3.000000
43.265137 20.646999 3.000000
43.932137 19.396000 3.000000
43.181137 18.193001 3.000000
43.848137 16.941000 3.000000
43.098137 15.738000 3.000000
43.765137 14.487001 3.000000
43.015137 13.284000 3.000000
46.433136 30.369000 3.000000
45.682137 29.166000 3.000000
46.349136 27.915001 3.000000
45.599136 26.712000 3.000000
46.266136 25.459999 3.000000
45.516136 24.257000 3.000000
46.182136 23.006000 3.000000
45.432137 21.802000 3.000000
46.099136 20.551001 3.000000
45.349136 19.348000 3.000000
46.016136 18.097000 3.000000
45.265137 16.893000 3.000000
47.850136 30.320999 3.000000
48.517139 29.070000 3.000000
47.766136 27.867001 3.000000
48.433136 26.615000 3.000000
47.683136 25.412001 3.000000
48.350136 24.160999 3.000000
47.600136 22.958000 3.000000
48.267139 21.705999 3.000000
47.516136 20.503000 3.000000
50.684139 30.225000 3.000000
49.934139 29.021999 3.000000
50.601139 27.770000 3.000000
49.850136 26.567000 3.000000
50.517139 25.316000 3.000000
49.767139 24.113001 3.000000
52.101139 30.177000 3.000000
52.768139 28.926001 3.000000
52.018139 27.722000 3.000000
0.000000 0.000000 6.400000
2.751000 2.551000 6.400000
2.084000 1.299000 6.400000
2.834000 0.096000 6.400000
4.752000 6.305000 6.400000
4.085000 5.054000 6.400000
4.835000 3.850000 6.400000
4.168000 2.599000 6.400000
4.918000 1.396000 6.400000
4.251000 0.144000 6.400000
6.752000 10.059000 6.400000
6.085000 8.808000 6.400000
6.836000 7.604000 6.400000
6.169000 6.353000 6.400000
6.919000 5.150000 6.400000
6.252000 3.898000 6.400000
7.002000 2.695000 6.400000
6.336000 1.444000 6.400000
7.086000 0.241000 6.400000
8.753000 13.813000 6.400000
8.086000 12.562000 6.400000
8.836001 11.358000 6.400000
8.169000 10.107000 6.400000
8.920000 8.904000 6.400000
8.253000 7.653000 6.400000
9.003000 6.449000 6.400000
8.336001 5.198000 6.400000
9.086000 3.995000 6.400000
8.420000 2.743000 6.400000
9.170000 1.540000 6.400000
8.503000 0.289000 6.400000
10.754000 17.567000 6.400000
10.087000 16.316000 6.400000
10.837000 15.113000 6.400000
10.170000 13.861000 6.400000
10.920000 12.658000 6.400000
10.254000 11.407000 6.400000
11.004000 10.203000 6.400000
10.337000 8.952000 6.400000
11.087000 7.749000 6.400000
10.420000 6.497000 6.400000
11.171000 5.294000 6.400000
10.504000 4.043000 6.400000
11.254000 2.840000 6.400000
10.587000 1.588000 6.400000
11.337000 0.385000 6.400000
12.754000 21.320999 6.400000
12.088000 20.070000 6.400000
12.838000 18.867001 6.400000
12.171000 17.615000 6.400000
12.921000 16.412001 6.400000
12.254000 15.161000 6.400000
13.004000 13.957000 6.400000
12.338000 12.706000 6.400000
13.088000 11.503000 6.400000
12.421000 10.252000 6.400000
13.171000 9.048000 6.400000
12.504000 7.797000 6.400000
13.255000 6.594000 6.400000
12.588000 5.342000 6.400000
13.338000 4.139000 6.400000
12.671000 2.888000 6.400000
13.421000 1.685000 6.400000
12.754000 0.433000 6.400000
14.755000 25.075001 6.400000
14.088000 23.823999 6.400000
14.838000 22.621000 6.400000
14.172000 21.369000 6.400000
14.922000 20.166000 6.400000
14.255000 18.915001 6.400000
15.005000 17.712000 6.400000
14.338000 16.459999 6.400000
15.089000 15.257000 6.400000
14.422000 14.006000 6.400000
15.172000 12.802000 6.400000
14.505000 11.551000 6.400000
15.255000 10.348000 6.400000
14.588000 9.096000 6.400000
15.339000 7.893000 6.400000
14.672000 6.642000 6.400000
15.422000 5.439000 6.400000
14.755000 4.187000 6.400000
15.505000 2.984000 6.400000
14.838000 1.733000 6.400000
15.589000 0.529000 6.400000
16.756000 28.829000 6.400000
16.089001 27.577999 6.400000
16.839001 26.375000 6.400000
16.172001 25.122999 6.400000
16.923000 23.920000 6.400000
16.256000 22.669001 6.400000
17.006000 21.466000 6.400000
16.339001 20.214001 6.400000
17.089001 19.011000 6.400000
16.422001 17.760000 6.400000
17.173000 16.556000 6.400000
16.506000 15.305000 6.400000
17.256000 14.102000 6.400000
16.589001 12.850000 6.400000
17.339001 11.647000 6.400000
16.672001 10.396000 6.400000
17.423000 9.193000 6.400000
16.756000 7.941000 6.400000
17.506000 6.738000 6.400000
16.839001 5.487000 6.400000
17.589001 4.283000 6.400000
16.923000 3.032000 6.400000
17.673000 1.829000 6.400000
17.006000 0.578000 6.400000
18.840000 30.129000 6.400000
18.173000 28.877001 6.400000
18.923000 27.674000 6.400000
18.256000 26.423000 6.400000
19.007000 25.219999 6.400000
18.340000 23.968000 6.400000
19.090000 22.764999 6.400000
18.423000 21.514000 6.400000
19.173000 20.309999 6.400000
18.506000 19.059000 6.400000
19.257000 17.856001 6.400000
18.590000 16.605000 6.400000
19.340000 15.401000 6.400000
18.673000 14.150000 6.400000
19.423000 12.947000 6.400000
18.756000 11.695000 6.400000
19.507000 10.492000 6.400000
18.840000 9.241000 6.400000
19.590000 8.038000 6.400000
18.923000 6.786000 6.400000
19.673000 5.583000 6.400000
19.007000 4.332000 6.400000
19.757000 3.128000 6.400000
19.090000 1.877000 6.400000
19.840000 0.674000 6.400000
20.257000 30.177000 6.400000
21.007000 28.974001 6.400000
20.340000 27.722000 6.400000
21.091000 26.518999 6.400000
20.424000 25.268000 6.400000
21.174000 24.065001 6.400000
20.507000 22.813000 6.400000
21.257000 21.610001 6.400000
20.590000 20.358999 6.400000
21.341000 19.155001 6.400000
20.674000 17.903999 6.400000
21.424000 16.701000 6.400000
20.757000 15.449000 6.400000
21.507000 14.246000 6.400000
20.841000 12.995000 6.400000
21.591000 11.792000 6.400000
20.924000 10.540000 6.400000
21.674000 9.337000 6.400000
21.007000 8.086000 6.400000
21.757999 6.882000 6.400000
21.091000 5.631000 6.400000
21.841000 4.428000 6.400000
21.174000 3.177000 6.400000
21.924000 1.973000 6.400000
21.257000 0.722000 6.400000
23.091000 30.273001 6.400000
22.424000 29.021999 6.400000
23.174999 27.819000 6.400000
22.507999 26.567000 6.400000
23.257999 25.364000 6.400000
22.591000 24.113001 6.400000
23.341000 22.909000 6.400000
22.674000 21.658001 6.400000
23.424999 20.455000 6.400000
22.757999 19.204000 6.400000
23.507999 18.000000 6.400000
22.841000 16.749001 6.400000
23.591000 15.546000 6.400000
22.924999 14.294000 6.400000
23.674999 13.091000 6.400000
23.007999 11.840000 6.400000
23.757999 10.637000 6.400000
23.091000 9.385000 6.400000
23.841999 8.182000 6.400000
23.174999 6.931000 6.400000
23.924999 5.727000 6.400000
23.257999 4.476000 6.400000
24.007999 3.273000 6.400000
23.341000 2.021000 6.400000
24.091999 0.818000 6.400000
24.507999 30.320999 6.400000
25.259001 29.118000 6.400000
24.591999 27.867001 6.400000
25.341999 26.664000 6.400000
24.674999 25.412001 6.400000
25.424999 24.209000 6.400000
24.759001 22.958000 6.400000
25.509001 21.754000 6.400000
24.841999 20.503000 6.400000
25.591999 19.299999 6.400000
24.924999 18.048000 6.400000
25.676001 16.844999 6.400000
25.009001 15.594000 6.400000
25.759001 14.391000 6.400000
25.091999 13.139000 6.400000
25.841999 11.936000 6.400000
25.174999 10.685000 6.400000
25.926001 9.481000 6.400000
25.259001 8.230000 6.400000
26.009001 7.027000 6.400000
25.341999 5.775000 6.400000
26.091999 4.572000 6.400000
25.424999 3.321000 6.400000
26.176001 2.118000 6.400000
25.509001 0.866000 6.400000
27.343000 30.417999 6.400000
26.676001 29.166000 6.400000
27.426001 27.962999 6.400000
26.759001 26.712000 6.400000
27.509001 25.507999 6.400000
26.843000 24.257000 6.400000
27.593000 23.054001 6.400000
26.926001 21.802000 6.400000
27.676001 20.599001 6.400000
27.009001 19.348000 6.400000
27.760000 18.145000 6.400000
27.093000 16.893000 6.400000
27.843000 15.690000 6.400000
27.176001 14.439000 6.400000
27.926001 13.236000 6.400000
27.259001 11.984000 6.400000
28.010000 10.781000 6.400000
27.343000 9.530000 6.400000
28.093000 8.326000 6.400000
27.426001 7.075000 6.400000
28.176001 5.872000 6.400000
27.509001 4.620000 6.400000
28.260000 3.417000 6.400000
27.593000 2.166000 6.400000
28.343000 0.963000 6.400000
28.760000 30.466000 6.400000
29.510000 29.263001 6.400000
28.843000 28.011000 6.400000
29.594000 26.808001 6.400000
28.927000 25.556999 6.400000
29.677000 24.353001 6.400000
29.010000 23.101999 6.400000
29.760000 21.899000 6.400000
29.093000 20.646999 6.400000
29.844000 19.444000 6.400000
29.177000 18.193001 6.400000
29.927000 16.990000 6.400000
29.260000 15.738000 6.400000
30.010000 14.535000 6.400000
29.343000 13.284000 6.400000
30.094000 12.080000 6.400000
29.427000 10.829000 6.400000
30.177000 9.626000 6.400000
29.510000 8.374000 6.400000
30.260000 7.171000 6.400000
29.594000 5.920000 6.400000
30.344000 4.717000 6.400000
29.677000 3.465000 6.400000
30.427000 2.262000 6.400000
29.760000 1.011000 6.400000
31.594000 30.562000 6.400000
30.927000 29.311001 6.400000
31.677999 28.107000 6.400000
31.011000 26.856001 6.400000
31.761000 25.653000 6.400000
31.094000 24.400999 6.400000
31.844000 23.198000 6.400000
31.177000 21.947001 6.400000
31.928000 20.744000 6.400000
31.261000 19.492001 6.400000
32.011002 18.289000 6.400000
31.344000 17.038000 6.400000
32.094002 15.834000 6.400000
31.427999 14.583000 6.400000
32.178001 13.380000 6.400000
31.511000 12.129000 6.400000
32.261002 10.925000 6.400000
31.594000 9.674000 6.400000
32.344002 8.471000 6.400000
31.677999 7.219000 6.400000
32.428001 6.016000 6.400000
31.761000 4.765000 6.400000
32.511002 3.562000 6.400000
31.844000 2.310000 6.400000
32.595001 1.107000 6.400000
33.011002 30.610001 6.400000
33.762001 29.407000 6.400000
33.095001 28.156000 6.400000
33.845001 26.952000 6.400000
33.178001 25.701000 6.400000
33.928001 24.497999 6.400000
33.261002 23.246000 6.400000
34.012001 22.042999 6.400000
33.345001 20.792000 6.400000
34.095001 19.589001 6.400000
33.428001 18.337000 6.400000
34.178001 17.134001 6.400000
33.512001 15.883000 6.400000
34.262001 14.679000 6.400000
33.595001 13.428000 6.400000
34.345001 12.225000 6.400000
33.678001 10.973000 6.400000
34.429001 9.770001 6.400000
33.762001 8.519000 6.400000
34.512001 7.316000 6.400000
33.845001 6.064000 6.400000
34.595001 4.861000 6.400000
33.928001 3.610000 6.400000
34.679001 2.406000 6.400000
34.012001 1.155000 6.400000
35.846001 30.705999 6.400000
35.179001 29.455000 6.400000
35.929001 28.252001 6.400000
35.262001 27.000000 6.400000
36.012001 25.797001 6.400000
35.346001 24.546000 6.400000
36.096001 23.343000 6.400000
35.429001 22.091000 6.400000
35.512001 19.636999 6.400000
35.596001 17.181999 6.400000
35.679001 14.728000 6.400000
35.762001 12.273000 6.400000
35.846001 9.818000 6.400000
35.929001 7.364000 6.400000
36.012001 4.909000 6.400000
36.096001 2.455000 6.400000
36.179138 20.888001 6.400000
36.262138 18.433001 6.400000
36.346138 15.979000 6.400000
36.429138 13.524000 6.400000
36.512138 11.070000 6.400000
36.596138 8.615000 6.400000
36.679138 6.161000 6.400000
36.763138 3.706000 6.400000
36.846138 1.251000 6.400000
37.263138 30.754999 6.400000
38.013138 29.551001 6.400000
37.346138 28.299999 6.400000
38.096138 27.097000 6.400000
37.429138 25.844999 6.400000
38.180138 24.642000 6.400000
37.513138 23.391001 6.400000
38.263138 22.188000 6.400000
37.596138 20.936001 6.400000
38.346138 19.733000 6.400000
37.680138 18.482000 6.400000
38.430138 17.278000 6.400000
37.763138 16.027000 6.400000
38.513138 14.824000 6.400000
37.846138 13.572000 6.400000
38.597138 12.369000 6.400000
37.930138 11.118000 6.400000
38.680138 9.915000 6.400000
38.013138 8.663000 6.400000
38.763138 7.460000 6.400000
38.096138 6.209000 6.400000
38.847138 5.005000 6.400000
38.180138 3.754000 6.400000
40.097138 30.851000 6.400000
39.430138 29.599001 6.400000
40.180138 28.396000 6.400000
39.513138 27.145000 6.400000
40.264137 25.941999 6.400000
39.597138 24.690001 6.400000
40.347138 23.486999 6.400000
39.680138 22.236000 6.400000
40.430138 21.032000 6.400000
39.764137 19.781000 6.400000
40.514137 18.577999 6.400000
39.847138 17.326000 6.400000
40.597138 16.122999 6.400000
39.930138 14.872000 6.400000
40.681137 13.669000 6.400000
40.014137 12.417000 6.400000
40.764137 11.214000 6.400000
40.097138 9.963000 6.400000
40.847138 8.759000 6.400000
40.180138 7.508000 6.400000
41.514137 30.899000 6.400000
42.264137 29.695999 6.400000
41.598137 28.444000 6.400000
42.348137 27.240999 6.400000
41.681137 25.990000 6.400000
42.431137 24.785999 6.400000
41.764137 23.535000 6.400000
42.515137 22.332001 6.400000
41.848137 21.080999 6.400000
42.598137 19.877001 6.400000
41.931137 18.625999 6.400000
42.681137 17.423000 6.400000
42.014137 16.171000 6.400000
42.765137 14.968000 6.400000
42.098137 13.717000 6.400000
42.848137 12.514000 6.400000
42.181137 11.262000 6.400000
44.348137 30.995001 6.400000
43.682137 29.744000 6.400000
44.432137 28.541000 6.400000
43.765137 27.289000 6.400000
44.515137 26.086000 6.400000
43.848137 24.834999 6.400000
44.599136 23.631000 6.400000
43.932137 22.379999 6.400000
44.682137 21.177000 6.400000
44.015137 19.924999 6.400000
44.765137 18.722000 6.400000
44.098137 17.471001 6.400000
44.849136 16.268000 6.400000
44.182136 15.016000 6.400000
45.766136 31.042999 6.400000
46.516136 29.840000 6.400000
45.849136 28.589001 6.400000
46.599136 27.385000 6.400000
45.932137 26.134001 6.400000
46.683136 24.931000 6.400000
46.016136 23.680000 6.400000
46.766136 22.476000 6.400000
46.099136 21.225000 6.400000
46.849136 20.021999 6.400000
46.182136 18.770000 6.400000
48.600136 31.139999 6.400000
47.933136 29.888001 6.400000
48.683136 28.684999 6.400000
48.016136 27.434000 6.400000
48.767139 26.230000 6.400000
48.100136 24.979000 6.400000
48.850136 23.775999 6.400000
48.183136 22.524000 6.400000
50.017139 31.188000 6.400000
50.767139 29.983999 6.400000
50.100136 28.733000 6.400000
50.851139 27.530001 6.400000
50.184139 26.278000 6.400000
52.851139 31.284000 6.400000
52.185139 30.033001 6.400000
