written by TR 
1.000000000 
112.735482000 0.000000000 0.000000000 
0.000000000 195.263582000 0.000000000 
0.000000000 0.000000000 18.400000000 
Type1 
16856
Cartesian 
0.80257800 8.58777000 7.50000000 
0.08025780 7.36756000 7.50000000 
0.77582600 6.13191000 7.50000000 
0.05350520 4.91171000 7.50000000 
0.74907300 3.67606000 7.50000000 
0.02675260 2.45585000 7.50000000 
0.72232000 1.22020000 7.50000000 
0.00000000 0.00000000 7.50000000 
2.22047000 8.57232000 7.50000000 
2.91603000 7.33667000 7.50000000 
2.19371000 6.11647000 7.50000000 
2.88928000 4.88082000 7.50000000 
2.16696000 3.66061000 7.50000000 
2.86253000 2.42496000 7.50000000 
2.14021000 1.20476000 7.50000000 
5.05624000 8.54143000 7.50000000 
4.33392000 7.32123000 7.50000000 
5.02949000 6.08558000 7.50000000 
4.30717000 4.86537000 7.50000000 
5.00274000 3.62972000 7.50000000 
4.28042000 2.40952000 7.50000000 
4.97598000 1.17387000 7.50000000 
7.19645000 9.74619000 7.50000000 
6.47413000 8.52598000 7.50000000 
7.16970000 7.29033000 7.50000000 
6.44738000 6.07013000 7.50000000 
7.14295000 4.83448000 7.50000000 
6.42063000 3.61428000 7.50000000 
7.11619000 2.37863000 7.50000000 
6.39387000 1.15842000 7.50000000 
8.61434000 9.73074000 7.50000000 
9.30991000 8.49509000 7.50000000 
8.58759000 7.27489000 7.50000000 
9.28315000 6.03924000 7.50000000 
8.56083000 4.81903000 7.50000000 
9.25640000 3.58338000 7.50000000 
8.53408000 2.36318000 7.50000000 
9.22965000 1.12753000 7.50000000 
11.45010000 9.69985000 7.50000000 
10.72780000 8.47965000 7.50000000 
11.42340000 7.24400000 7.50000000 
10.70100000 6.02379000 7.50000000 
11.39660000 4.78814000 7.50000000 
10.67430000 3.56794000 7.50000000 
11.36990000 2.33229000 7.50000000 
10.64750000 1.11208000 7.50000000 
12.86800000 9.68441000 7.50000000 
13.56360000 8.44876000 7.50000000 
12.84130000 7.22855000 7.50000000 
13.53680000 5.99290000 7.50000000 
12.81450000 4.77270000 7.50000000 
13.51010000 3.53705000 7.50000000 
12.78770000 2.31684000 7.50000000 
13.48330000 1.08119000 7.50000000 
15.70380000 9.65352000 7.50000000 
14.98150000 8.43331000 7.50000000 
15.67700000 7.19766000 7.50000000 
14.95470000 5.97746000 7.50000000 
15.65030000 4.74181000 7.50000000 
14.92800000 3.52160000 7.50000000 
15.62350000 2.28595000 7.50000000 
14.90120000 1.06575000 7.50000000 
17.12170000 9.63807000 7.50000000 
17.81720000 8.40242000 7.50000000 
17.09490000 7.18222000 7.50000000 
17.79050000 5.94657000 7.50000000 
17.06820000 4.72636000 7.50000000 
17.76370000 3.49071000 7.50000000 
17.04140000 2.27051000 7.50000000 
17.73700000 1.03486000 7.50000000 
19.95740000 9.60718000 7.50000000 
19.23510000 8.38697000 7.50000000 
19.93070000 7.15132000 7.50000000 
19.20840000 5.93112000 7.50000000 
19.90390000 4.69547000 7.50000000 
19.18160000 3.47527000 7.50000000 
19.87720000 2.23962000 7.50000000 
19.15490000 1.01941000 7.50000000 
21.37530000 9.59173000 7.50000000 
22.07090000 8.35608000 7.50000000 
21.34860000 7.13588000 7.50000000 
22.04410000 5.90023000 7.50000000 
21.32180000 4.68002000 7.50000000 
22.01740000 3.44437000 7.50000000 
21.29510000 2.22417000 7.50000000 
21.99060000 0.98852000 7.50000000 
24.21110000 9.56084000 7.50000000 
23.48880000 8.34064000 7.50000000 
24.18440000 7.10499000 7.50000000 
23.46200000 5.88478000 7.50000000 
24.15760000 4.64913000 7.50000000 
23.43530000 3.42893000 7.50000000 
24.13090000 2.19328000 7.50000000 
23.40850000 0.97307400 7.50000000 
25.62900000 9.54540000 7.50000000 
26.32460000 8.30975000 7.50000000 
25.60220000 7.08954000 7.50000000 
26.29780000 5.85389000 7.50000000 
25.57550000 4.63369000 7.50000000 
26.27110000 3.39804000 7.50000000 
25.54870000 2.17783000 7.50000000 
26.24430000 0.94218300 7.50000000 
27.74250000 8.29430000 7.50000000 
27.71570000 5.83845000 7.50000000 
27.68890000 3.38259000 7.50000000 
27.66220000 0.92673700 7.50000000 
28.46480000 9.51450000 7.50000000 
28.43800000 7.05865000 7.50000000 
28.41130000 4.60280000 7.50000000 
28.38450000 2.14694000 7.50000000 
29.88270000 9.49906000 7.50000000 
30.57820000 8.26341000 7.50000000 
29.85590000 7.04320000 7.50000000 
30.55150000 5.80755000 7.50000000 
29.82920000 4.58735000 7.50000000 
30.52470000 3.35170000 7.50000000 
29.80240000 2.13150000 7.50000000 
30.49800000 0.89584600 7.50000000 
32.71840000 9.46817000 7.50000000 
31.99610000 8.24796000 7.50000000 
32.69170000 7.01231000 7.50000000 
31.96940000 5.79211000 7.50000000 
32.66490000 4.55646000 7.50000000 
31.94260000 3.33625000 7.50000000 
32.63820000 2.10060000 7.50000000 
31.91590000 0.88040100 7.50000000 
34.13630000 9.45272000 7.50000000 
34.83190000 8.21707000 7.50000000 
34.10960000 6.99687000 7.50000000 
34.80510000 5.76122000 7.50000000 
34.08280000 4.54101000 7.50000000 
34.77840000 3.30536000 7.50000000 
34.05610000 2.08516000 7.50000000 
34.75160000 0.84950900 7.50000000 
36.97210000 9.42183000 7.50000000 
36.24980000 8.20163000 7.50000000 
36.94530000 6.96598000 7.50000000 
36.22300000 5.74577000 7.50000000 
36.91860000 4.51012000 7.50000000 
36.19630000 3.28992000 7.50000000 
36.89180000 2.05427000 7.50000000 
36.16950000 0.83406400 7.50000000 
38.39000000 9.40639000 7.50000000 
39.08560000 8.17074000 7.50000000 
38.36320000 6.95053000 7.50000000 
39.05880000 5.71488000 7.50000000 
38.33650000 4.49468000 7.50000000 
39.03210000 3.25903000 7.50000000 
38.30970000 2.03882000 7.50000000 
39.00530000 0.80317200 7.50000000 
41.22580000 9.37549000 7.50000000 
40.50340000 8.15529000 7.50000000 
41.19900000 6.91964000 7.50000000 
40.47670000 5.69944000 7.50000000 
41.17230000 4.46379000 7.50000000 
40.44990000 3.24358000 7.50000000 
41.14550000 2.00793000 7.50000000 
40.42320000 0.78772700 7.50000000 
42.64370000 9.36005000 7.50000000 
43.33920000 8.12440000 7.50000000 
42.61690000 6.90419000 7.50000000 
43.31250000 5.66854000 7.50000000 
42.59010000 4.44834000 7.50000000 
43.28570000 3.21269000 7.50000000 
42.56340000 1.99249000 7.50000000 
43.25900000 0.75683600 7.50000000 
45.47940000 9.32916000 7.50000000 
44.75710000 8.10895000 7.50000000 
45.45270000 6.87330000 7.50000000 
44.73040000 5.65310000 7.50000000 
45.42590000 4.41745000 7.50000000 
44.70360000 3.19724000 7.50000000 
45.39920000 1.96159000 7.50000000 
44.67690000 0.74139000 7.50000000 
46.89730000 9.31371000 7.50000000 
46.87060000 6.85786000 7.50000000 
46.84380000 4.40200000 7.50000000 
46.81710000 1.94615000 7.50000000 
47.59290000 8.07806000 7.50000000 
47.56610000 5.62221000 7.50000000 
47.53940000 3.16635000 7.50000000 
47.51260000 0.71049900 7.50000000 
49.73310000 9.28282000 7.50000000 
49.01080000 8.06262000 7.50000000 
49.70630000 6.82697000 7.50000000 
48.98400000 5.60676000 7.50000000 
49.67960000 4.37111000 7.50000000 
48.95730000 3.15091000 7.50000000 
49.65280000 1.91526000 7.50000000 
48.93050000 0.69505300 7.50000000 
51.15100000 9.26737000 7.50000000 
51.84660000 8.03172000 7.50000000 
51.12420000 6.81152000 7.50000000 
51.81980000 5.57587000 7.50000000 
51.09750000 4.35567000 7.50000000 
51.79300000 3.12002000 7.50000000 
51.07070000 1.89981000 7.50000000 
51.76630000 0.66416200 7.50000000 
53.98680000 9.23648000 7.50000000 
53.26440000 8.01628000 7.50000000 
53.96000000 6.78063000 7.50000000 
53.23770000 5.56042000 7.50000000 
53.93330000 4.32477000 7.50000000 
53.21090000 3.10457000 7.50000000 
53.90650000 1.86892000 7.50000000 
53.18420000 0.64871600 7.50000000 
55.40460000 9.22104000 7.50000000 
56.10020000 7.98539000 7.50000000 
55.37790000 6.76518000 7.50000000 
56.07350000 5.52953000 7.50000000 
55.35110000 4.30933000 7.50000000 
56.04670000 3.07368000 7.50000000 
55.32440000 1.85347000 7.50000000 
56.02000000 0.61782500 7.50000000 
58.24040000 9.19015000 7.50000000 
57.51810000 7.96994000 7.50000000 
58.21370000 6.73429000 7.50000000 
57.49140000 5.51409000 7.50000000 
58.18690000 4.27844000 7.50000000 
57.46460000 3.05823000 7.50000000 
58.16020000 1.82258000 7.50000000 
57.43780000 0.60237900 7.50000000 
59.65830000 9.17470000 7.50000000 
60.35390000 7.93905000 7.50000000 
59.63160000 6.71885000 7.50000000 
60.32710000 5.48320000 7.50000000 
59.60480000 4.26299000 7.50000000 
60.30040000 3.02734000 7.50000000 
59.57810000 1.80714000 7.50000000 
60.27360000 0.57148800 7.50000000 
62.49410000 9.14381000 7.50000000 
61.77180000 7.92361000 7.50000000 
62.46730000 6.68796000 7.50000000 
61.74500000 5.46775000 7.50000000 
62.44060000 4.23210000 7.50000000 
61.71830000 3.01190000 7.50000000 
62.41380000 1.77625000 7.50000000 
61.69150000 0.55604200 7.50000000 
63.91200000 9.12836000 7.50000000 
64.60750000 7.89271000 7.50000000 
63.88520000 6.67251000 7.50000000 
64.58080000 5.43686000 7.50000000 
63.85850000 4.21666000 7.50000000 
64.55400000 2.98101000 7.50000000 
63.83170000 1.76080000 7.50000000 
64.52730000 0.52515100 7.50000000 
66.74780000 9.09747000 7.50000000 
66.02540000 7.87727000 7.50000000 
66.72100000 6.64162000 7.50000000 
65.99870000 5.42141000 7.50000000 
66.69420000 4.18576000 7.50000000 
65.97190000 2.96556000 7.50000000 
66.66750000 1.72991000 7.50000000 
65.94520000 0.50970600 7.50000000 
68.16560000 9.08203000 7.50000000 
68.86120000 7.84638000 7.50000000 
68.13890000 6.62617000 7.50000000 
68.83450000 5.39052000 7.50000000 
68.11210000 4.17032000 7.50000000 
68.80770000 2.93467000 7.50000000 
68.08540000 1.71446000 7.50000000 
68.78100000 0.47881400 7.50000000 
71.00140000 9.05114000 7.50000000 
70.27910000 7.83093000 7.50000000 
70.97470000 6.59528000 7.50000000 
70.25230000 5.37508000 7.50000000 
70.94790000 4.13943000 7.50000000 
70.22560000 2.91922000 7.50000000 
70.92120000 1.68357000 7.50000000 
70.19880000 0.46336900 7.50000000 
72.41930000 9.03569000 7.50000000 
73.11490000 7.80004000 7.50000000 
72.39260000 6.57984000 7.50000000 
73.08810000 5.34419000 7.50000000 
72.36580000 4.12398000 7.50000000 
73.06140000 2.88833000 7.50000000 
72.33900000 1.66813000 7.50000000 
73.03460000 0.43247700 7.50000000 
74.53280000 7.78459000 7.50000000 
74.50600000 5.32874000 7.50000000 
74.47930000 2.87289000 7.50000000 
74.45250000 0.41703200 7.50000000 
75.25510000 9.00480000 7.50000000 
75.22830000 6.54894000 7.50000000 
75.20160000 4.09309000 7.50000000 
75.17480000 1.63724000 7.50000000 
76.67300000 8.98935000 7.50000000 
77.36850000 7.75370000 7.50000000 
76.64620000 6.53350000 7.50000000 
77.34180000 5.29785000 7.50000000 
76.61950000 4.07764000 7.50000000 
77.31500000 2.84199000 7.50000000 
76.59270000 1.62179000 7.50000000 
77.28830000 0.38614100 7.50000000 
79.50870000 8.95846000 7.50000000 
78.78640000 7.73826000 7.50000000 
79.48200000 6.50261000 7.50000000 
78.75970000 5.28240000 7.50000000 
79.45520000 4.04675000 7.50000000 
78.73290000 2.82655000 7.50000000 
79.42850000 1.59090000 7.50000000 
78.70620000 0.37069500 7.50000000 
80.92660000 8.94302000 7.50000000 
81.62220000 7.70737000 7.50000000 
80.89990000 6.48716000 7.50000000 
81.59540000 5.25151000 7.50000000 
80.87310000 4.03131000 7.50000000 
81.56870000 2.79566000 7.50000000 
80.84640000 1.57545000 7.50000000 
81.54190000 0.33980400 7.50000000 
83.76240000 8.91213000 7.50000000 
83.04010000 7.69192000 7.50000000 
83.73570000 6.45627000 7.50000000 
83.01330000 5.23607000 7.50000000 
83.70890000 4.00042000 7.50000000 
82.98660000 2.78021000 7.50000000 
83.68220000 1.54456000 7.50000000 
82.95980000 0.32435800 7.50000000 
85.18030000 8.89668000 7.50000000 
85.87590000 7.66103000 7.50000000 
85.15350000 6.44083000 7.50000000 
85.84910000 5.20518000 7.50000000 
85.12680000 3.98497000 7.50000000 
85.82240000 2.74932000 7.50000000 
85.10000000 1.52912000 7.50000000 
85.79560000 0.29346700 7.50000000 
88.01610000 8.86579000 7.50000000 
87.29380000 7.64558000 7.50000000 
87.98930000 6.40993000 7.50000000 
87.26700000 5.18973000 7.50000000 
87.96260000 3.95408000 7.50000000 
87.24020000 2.73388000 7.50000000 
87.93580000 1.49823000 7.50000000 
87.21350000 0.27802100 7.50000000 
89.43400000 8.85034000 7.50000000 
90.12950000 7.61469000 7.50000000 
89.40720000 6.39449000 7.50000000 
90.10280000 5.15884000 7.50000000 
89.38050000 3.93863000 7.50000000 
90.07600000 2.70298000 7.50000000 
89.35370000 1.48278000 7.50000000 
90.04930000 0.24713000 7.50000000 
92.26970000 8.81945000 7.50000000 
91.54740000 7.59925000 7.50000000 
92.24300000 6.36360000 7.50000000 
91.52070000 5.14339000 7.50000000 
92.21620000 3.90774000 7.50000000 
91.49390000 2.68754000 7.50000000 
92.18950000 1.45189000 7.50000000 
91.46720000 0.23168400 7.50000000 
93.68760000 8.80401000 7.50000000 
93.66090000 6.34815000 7.50000000 
93.63410000 3.89230000 7.50000000 
93.60740000 1.43644000 7.50000000 
94.38320000 7.56836000 7.50000000 
94.35640000 5.11250000 7.50000000 
94.32970000 2.65665000 7.50000000 
94.30290000 0.20079300 7.50000000 
96.52340000 8.77311000 7.50000000 
95.80110000 7.55291000 7.50000000 
96.49670000 6.31726000 7.50000000 
95.77430000 5.09706000 7.50000000 
96.46990000 3.86141000 7.50000000 
95.74760000 2.64120000 7.50000000 
96.44310000 1.40555000 7.50000000 
95.72080000 0.18534700 7.50000000 
97.94130000 8.75767000 7.50000000 
98.63690000 7.52202000 7.50000000 
97.91450000 6.30181000 7.50000000 
98.61010000 5.06616000 7.50000000 
97.88780000 3.84596000 7.50000000 
98.58340000 2.61031000 7.50000000 
97.86100000 1.39011000 7.50000000 
98.55660000 0.15445600 7.50000000 
100.77700000 8.72678000 7.50000000 
100.05500000 7.50657000 7.50000000 
100.75000000 6.27092000 7.50000000 
100.02800000 5.05072000 7.50000000 
100.72400000 3.81507000 7.50000000 
100.00100000 2.59486000 7.50000000 
100.69700000 1.35921000 7.50000000 
99.97450000 0.13901100 7.50000000 
102.19500000 8.71133000 7.50000000 
102.89100000 7.47568000 7.50000000 
102.16800000 6.25548000 7.50000000 
102.86400000 5.01983000 7.50000000 
102.14100000 3.79962000 7.50000000 
102.83700000 2.56397000 7.50000000 
102.11500000 1.34377000 7.50000000 
102.81000000 0.10811900 7.50000000 
105.03100000 8.68044000 7.50000000 
104.30800000 7.46024000 7.50000000 
105.00400000 6.22459000 7.50000000 
104.28200000 5.00438000 7.50000000 
104.97700000 3.76873000 7.50000000 
104.25500000 2.54853000 7.50000000 
104.95000000 1.31288000 7.50000000 
104.22800000 0.09267370 7.50000000 
106.44900000 8.66500000 7.50000000 
107.14400000 7.42935000 7.50000000 
106.42200000 6.20914000 7.50000000 
107.11700000 4.97349000 7.50000000 
106.39500000 3.75329000 7.50000000 
107.09100000 2.51764000 7.50000000 
106.36800000 1.29743000 7.50000000 
107.06400000 0.06178250 7.50000000 
109.28400000 8.63410000 7.50000000 
108.56200000 7.41390000 7.50000000 
109.25800000 6.17825000 7.50000000 
108.53500000 4.95805000 7.50000000 
109.23100000 3.72240000 7.50000000 
108.50900000 2.50219000 7.50000000 
109.20400000 1.26654000 7.50000000 
108.48200000 0.04633690 7.50000000 
110.70200000 8.61866000 7.50000000 
111.39800000 7.38301000 7.50000000 
110.67600000 6.16280000 7.50000000 
111.37100000 4.92715000 7.50000000 
110.64900000 3.70695000 7.50000000 
111.34400000 2.47130000 7.50000000 
110.62200000 1.25110000 7.50000000 
111.31800000 0.01544560 7.50000000 
0.90958900 18.41120000 7.50000000 
0.18726800 17.19100000 7.50000000 
0.88283600 15.95530000 7.50000000 
0.16051600 14.73510000 7.50000000 
0.85608300 13.49950000 7.50000000 
0.13376300 12.27930000 7.50000000 
0.82933100 11.04360000 7.50000000 
0.10701000 9.82342000 7.50000000 
2.32748000 18.39570000 7.50000000 
3.02304000 17.16010000 7.50000000 
2.30072000 15.93990000 7.50000000 
2.99629000 14.70420000 7.50000000 
2.27397000 13.48400000 7.50000000 
2.96954000 12.24840000 7.50000000 
2.24722000 11.02820000 7.50000000 
2.94279000 9.79253000 7.50000000 
5.16325000 18.36480000 7.50000000 
4.44093000 17.14460000 7.50000000 
5.13650000 15.90900000 7.50000000 
4.41418000 14.68880000 7.50000000 
5.10975000 13.45310000 7.50000000 
4.38743000 12.23290000 7.50000000 
5.08300000 10.99730000 7.50000000 
4.36067000 9.77708000 7.50000000 
6.58114000 18.34940000 7.50000000 
7.27671000 17.11380000 7.50000000 
6.55439000 15.89350000 7.50000000 
7.24996000 14.65790000 7.50000000 
6.52764000 13.43770000 7.50000000 
7.22320000 12.20200000 7.50000000 
6.50088000 10.98180000 7.50000000 
8.69460000 17.09830000 7.50000000 
9.39016000 15.86270000 7.50000000 
8.66784000 14.64250000 7.50000000 
9.36341000 13.40680000 7.50000000 
8.64109000 12.18660000 7.50000000 
9.33666000 10.95090000 7.50000000 
9.41692000 18.31850000 7.50000000 
11.55710000 19.52330000 7.50000000 
10.83480000 18.30310000 7.50000000 
11.53040000 17.06740000 7.50000000 
10.80810000 15.84720000 7.50000000 
11.50360000 14.61160000 7.50000000 
10.78130000 13.39140000 7.50000000 
11.47690000 12.15570000 7.50000000 
10.75450000 10.93550000 7.50000000 
12.97500000 19.50780000 7.50000000 
13.67060000 18.27220000 7.50000000 
12.94830000 17.05200000 7.50000000 
13.64380000 15.81630000 7.50000000 
12.92150000 14.59610000 7.50000000 
13.61710000 13.36050000 7.50000000 
12.89480000 12.14030000 7.50000000 
13.59030000 10.90460000 7.50000000 
15.81080000 19.47690000 7.50000000 
15.08850000 18.25670000 7.50000000 
15.78400000 17.02110000 7.50000000 
15.06170000 15.80090000 7.50000000 
15.75730000 14.56520000 7.50000000 
15.03500000 13.34500000 7.50000000 
15.73050000 12.10940000 7.50000000 
15.00820000 10.88920000 7.50000000 
17.22870000 19.46150000 7.50000000 
17.92420000 18.22580000 7.50000000 
17.20190000 17.00560000 7.50000000 
17.89750000 15.77000000 7.50000000 
17.17520000 14.54980000 7.50000000 
17.87070000 13.31410000 7.50000000 
17.14840000 12.09390000 7.50000000 
17.84400000 10.85830000 7.50000000 
20.06450000 19.43060000 7.50000000 
19.34210000 18.21040000 7.50000000 
20.03770000 16.97470000 7.50000000 
19.31540000 15.75450000 7.50000000 
20.01090000 14.51890000 7.50000000 
19.28860000 13.29870000 7.50000000 
19.98420000 12.06300000 7.50000000 
19.26190000 10.84280000 7.50000000 
21.48230000 19.41510000 7.50000000 
22.17790000 18.17950000 7.50000000 
21.45560000 16.95930000 7.50000000 
22.15120000 15.72360000 7.50000000 
21.42880000 14.50340000 7.50000000 
22.12440000 13.26780000 7.50000000 
21.40210000 12.04760000 7.50000000 
22.09770000 10.81190000 7.50000000 
24.31810000 19.38430000 7.50000000 
23.59580000 18.16410000 7.50000000 
24.29140000 16.92840000 7.50000000 
23.56900000 15.70820000 7.50000000 
24.26460000 14.47260000 7.50000000 
23.54230000 13.25230000 7.50000000 
24.23790000 12.01670000 7.50000000 
23.51550000 10.79650000 7.50000000 
25.73600000 19.36880000 7.50000000 
26.43160000 18.13320000 7.50000000 
25.70930000 16.91300000 7.50000000 
26.40480000 15.67730000 7.50000000 
25.68250000 14.45710000 7.50000000 
26.37810000 13.22150000 7.50000000 
25.65570000 12.00130000 7.50000000 
26.35130000 10.76560000 7.50000000 
27.84950000 18.11770000 7.50000000 
27.82270000 15.66190000 7.50000000 
27.79600000 13.20600000 7.50000000 
27.76920000 10.75020000 7.50000000 
28.57180000 19.33790000 7.50000000 
28.54500000 16.88210000 7.50000000 
28.51830000 14.42620000 7.50000000 
28.49150000 11.97040000 7.50000000 
29.98970000 19.32250000 7.50000000 
30.68520000 18.08680000 7.50000000 
29.96290000 16.86660000 7.50000000 
30.65850000 15.63100000 7.50000000 
29.93620000 14.41080000 7.50000000 
30.63170000 13.17510000 7.50000000 
29.90940000 11.95490000 7.50000000 
30.60500000 10.71930000 7.50000000 
32.82540000 19.29160000 7.50000000 
32.10310000 18.07140000 7.50000000 
32.79870000 16.83570000 7.50000000 
32.07640000 15.61550000 7.50000000 
32.77190000 14.37990000 7.50000000 
32.04960000 13.15970000 7.50000000 
32.74520000 11.92400000 7.50000000 
32.02290000 10.70380000 7.50000000 
34.24330000 19.27610000 7.50000000 
34.93890000 18.04050000 7.50000000 
34.21660000 16.82030000 7.50000000 
34.91220000 15.58460000 7.50000000 
34.18980000 14.36440000 7.50000000 
34.88540000 13.12880000 7.50000000 
34.16310000 11.90860000 7.50000000 
34.85860000 10.67290000 7.50000000 
37.07910000 19.24520000 7.50000000 
36.35680000 18.02500000 7.50000000 
37.05240000 16.78940000 7.50000000 
36.33000000 15.56920000 7.50000000 
37.02560000 14.33350000 7.50000000 
36.30330000 13.11330000 7.50000000 
36.99890000 11.87770000 7.50000000 
36.27650000 10.65750000 7.50000000 
38.49700000 19.22980000 7.50000000 
39.19260000 17.99420000 7.50000000 
38.47020000 16.77390000 7.50000000 
39.16580000 15.53830000 7.50000000 
38.44350000 14.31810000 7.50000000 
39.13910000 13.08240000 7.50000000 
38.41670000 11.86220000 7.50000000 
39.11230000 10.62660000 7.50000000 
41.33280000 19.19890000 7.50000000 
40.61050000 17.97870000 7.50000000 
41.30600000 16.74310000 7.50000000 
40.58370000 15.52290000 7.50000000 
41.27930000 14.28720000 7.50000000 
40.55700000 13.06700000 7.50000000 
41.25250000 11.83130000 7.50000000 
40.53020000 10.61110000 7.50000000 
42.75070000 19.18350000 7.50000000 
43.44620000 17.94780000 7.50000000 
42.72390000 16.72760000 7.50000000 
43.41950000 15.49200000 7.50000000 
42.69720000 14.27180000 7.50000000 
43.39270000 13.03610000 7.50000000 
42.67040000 11.81590000 7.50000000 
43.36600000 10.58030000 7.50000000 
45.58640000 19.15260000 7.50000000 
44.86410000 17.93240000 7.50000000 
45.55970000 16.69670000 7.50000000 
44.83740000 15.47650000 7.50000000 
45.53290000 14.24090000 7.50000000 
44.81060000 13.02070000 7.50000000 
45.50620000 11.78500000 7.50000000 
44.78390000 10.56480000 7.50000000 
46.95080000 14.22540000 7.50000000 
46.92410000 11.76960000 7.50000000 
47.00430000 19.13710000 7.50000000 
47.69990000 17.90150000 7.50000000 
46.97760000 16.68130000 7.50000000 
47.67310000 15.44560000 7.50000000 
47.64640000 12.98980000 7.50000000 
47.61960000 10.53390000 7.50000000 
49.84010000 19.10620000 7.50000000 
49.11780000 17.88600000 7.50000000 
49.81340000 16.65040000 7.50000000 
49.09100000 15.43020000 7.50000000 
49.78660000 14.19450000 7.50000000 
49.06430000 12.97430000 7.50000000 
49.75980000 11.73870000 7.50000000 
49.03750000 10.51850000 7.50000000 
51.25800000 19.09080000 7.50000000 
51.95360000 17.85510000 7.50000000 
51.23120000 16.63490000 7.50000000 
51.92680000 15.39930000 7.50000000 
51.20450000 14.17910000 7.50000000 
51.90010000 12.94340000 7.50000000 
51.17770000 11.72320000 7.50000000 
51.87330000 10.48760000 7.50000000 
54.09380000 19.05990000 7.50000000 
53.37140000 17.83970000 7.50000000 
54.06700000 16.60400000 7.50000000 
53.34470000 15.38380000 7.50000000 
54.04030000 14.14820000 7.50000000 
53.31790000 12.92800000 7.50000000 
54.01350000 11.69230000 7.50000000 
53.29120000 10.47210000 7.50000000 
55.51170000 19.04450000 7.50000000 
56.20720000 17.80880000 7.50000000 
55.48490000 16.58860000 7.50000000 
56.18050000 15.35300000 7.50000000 
55.45820000 14.13270000 7.50000000 
56.15370000 12.89710000 7.50000000 
55.43140000 11.67690000 7.50000000 
56.12700000 10.44120000 7.50000000 
58.34740000 19.01360000 7.50000000 
57.62510000 17.79340000 7.50000000 
58.32070000 16.55770000 7.50000000 
57.59840000 15.33750000 7.50000000 
58.29390000 14.10190000 7.50000000 
57.57160000 12.88170000 7.50000000 
58.26720000 11.64600000 7.50000000 
57.54490000 10.42580000 7.50000000 
59.76530000 18.99810000 7.50000000 
60.46090000 17.76250000 7.50000000 
59.73860000 16.54230000 7.50000000 
60.43410000 15.30660000 7.50000000 
59.71180000 14.08640000 7.50000000 
60.40740000 12.85080000 7.50000000 
59.68510000 11.63060000 7.50000000 
60.38060000 10.39490000 7.50000000 
62.60110000 18.96720000 7.50000000 
61.87880000 17.74700000 7.50000000 
62.57430000 16.51140000 7.50000000 
61.85200000 15.29120000 7.50000000 
62.54760000 14.05550000 7.50000000 
61.82530000 12.83530000 7.50000000 
62.52080000 11.59970000 7.50000000 
61.79850000 10.37950000 7.50000000 
64.01900000 18.95180000 7.50000000 
64.71460000 17.71610000 7.50000000 
63.99220000 16.49590000 7.50000000 
64.68780000 15.26030000 7.50000000 
63.96550000 14.04010000 7.50000000 
64.66100000 12.80440000 7.50000000 
63.93870000 11.58420000 7.50000000 
64.63430000 10.34860000 7.50000000 
66.85480000 18.92090000 7.50000000 
66.13240000 17.70070000 7.50000000 
66.82800000 16.46500000 7.50000000 
66.10570000 15.24480000 7.50000000 
66.80130000 14.00920000 7.50000000 
66.07890000 12.78900000 7.50000000 
66.77450000 11.55330000 7.50000000 
66.05220000 10.33310000 7.50000000 
68.27270000 18.90540000 7.50000000 
68.96820000 17.66980000 7.50000000 
68.24590000 16.44960000 7.50000000 
68.94150000 15.21390000 7.50000000 
68.21910000 13.99370000 7.50000000 
68.91470000 12.75810000 7.50000000 
68.19240000 11.53790000 7.50000000 
68.88800000 10.30220000 7.50000000 
71.10840000 18.87460000 7.50000000 
70.38610000 17.65430000 7.50000000 
71.08170000 16.41870000 7.50000000 
70.35940000 15.19850000 7.50000000 
71.05490000 13.96280000 7.50000000 
70.33260000 12.74260000 7.50000000 
71.02820000 11.50700000 7.50000000 
70.30580000 10.28680000 7.50000000 
72.52630000 18.85910000 7.50000000 
73.22190000 17.62350000 7.50000000 
72.49960000 16.40330000 7.50000000 
73.19510000 15.16760000 7.50000000 
72.47280000 13.94740000 7.50000000 
73.16840000 12.71170000 7.50000000 
72.44610000 11.49150000 7.50000000 
73.14160000 10.25590000 7.50000000 
74.63980000 17.60800000 7.50000000 
74.61300000 15.15220000 7.50000000 
74.58630000 12.69630000 7.50000000 
74.55950000 10.24040000 7.50000000 
75.36210000 18.82820000 7.50000000 
75.33530000 16.37240000 7.50000000 
75.30860000 13.91650000 7.50000000 
75.28180000 11.46070000 7.50000000 
76.78000000 18.81280000 7.50000000 
77.47550000 17.57710000 7.50000000 
76.75320000 16.35690000 7.50000000 
77.44880000 15.12130000 7.50000000 
76.72650000 13.90110000 7.50000000 
77.42200000 12.66540000 7.50000000 
76.69970000 11.44520000 7.50000000 
77.39530000 10.20960000 7.50000000 
79.61580000 18.78190000 7.50000000 
78.89340000 17.56170000 7.50000000 
79.58900000 16.32600000 7.50000000 
78.86670000 15.10580000 7.50000000 
79.56230000 13.87020000 7.50000000 
78.83990000 12.65000000 7.50000000 
79.53550000 11.41430000 7.50000000 
78.81320000 10.19410000 7.50000000 
81.03360000 18.76640000 7.50000000 
81.72920000 17.53080000 7.50000000 
81.00690000 16.31060000 7.50000000 
81.70250000 15.07490000 7.50000000 
80.98010000 13.85470000 7.50000000 
81.67570000 12.61910000 7.50000000 
80.95340000 11.39890000 7.50000000 
81.64900000 10.16320000 7.50000000 
83.86940000 18.73550000 7.50000000 
83.14710000 17.51530000 7.50000000 
83.84270000 16.27970000 7.50000000 
83.12030000 15.05950000 7.50000000 
83.81590000 13.82380000 7.50000000 
83.09360000 12.60360000 7.50000000 
83.78920000 11.36800000 7.50000000 
83.06680000 10.14780000 7.50000000 
85.28730000 18.72010000 7.50000000 
85.98290000 17.48440000 7.50000000 
85.26060000 16.26420000 7.50000000 
85.95610000 15.02860000 7.50000000 
85.23380000 13.80840000 7.50000000 
85.92940000 12.57270000 7.50000000 
85.20710000 11.35250000 7.50000000 
85.90260000 10.11690000 7.50000000 
88.12310000 18.68920000 7.50000000 
87.40080000 17.46900000 7.50000000 
88.09630000 16.23340000 7.50000000 
87.37400000 15.01310000 7.50000000 
88.06960000 13.77750000 7.50000000 
87.34730000 12.55730000 7.50000000 
88.04280000 11.32160000 7.50000000 
87.32050000 10.10140000 7.50000000 
89.54100000 18.67380000 7.50000000 
90.23650000 17.43810000 7.50000000 
89.51420000 16.21790000 7.50000000 
90.20980000 14.98230000 7.50000000 
89.48750000 13.76210000 7.50000000 
90.18300000 12.52640000 7.50000000 
89.46070000 11.30620000 7.50000000 
90.15630000 10.07050000 7.50000000 
92.37670000 18.64290000 7.50000000 
91.65440000 17.42270000 7.50000000 
92.35000000 16.18700000 7.50000000 
91.62770000 14.96680000 7.50000000 
92.32320000 13.73120000 7.50000000 
91.60090000 12.51100000 7.50000000 
92.29650000 11.27530000 7.50000000 
91.57420000 10.05510000 7.50000000 
93.79460000 18.62740000 7.50000000 
93.76790000 16.17160000 7.50000000 
93.74110000 13.71570000 7.50000000 
93.71440000 11.25990000 7.50000000 
94.49020000 17.39180000 7.50000000 
94.46350000 14.93590000 7.50000000 
94.43670000 12.48010000 7.50000000 
94.40990000 10.02420000 7.50000000 
96.63040000 18.59650000 7.50000000 
95.90810000 17.37630000 7.50000000 
96.60370000 16.14070000 7.50000000 
95.88130000 14.92050000 7.50000000 
96.57690000 13.68480000 7.50000000 
95.85460000 12.46460000 7.50000000 
96.55020000 11.22900000 7.50000000 
95.82780000 10.00880000 7.50000000 
98.04830000 18.58110000 7.50000000 
98.74390000 17.34540000 7.50000000 
98.02150000 16.12520000 7.50000000 
98.71710000 14.88960000 7.50000000 
97.99480000 13.66940000 7.50000000 
98.69040000 12.43370000 7.50000000 
97.96800000 11.21350000 7.50000000 
98.66360000 9.97787000 7.50000000 
100.88400000 18.55020000 7.50000000 
100.16200000 17.33000000 7.50000000 
100.85700000 16.09430000 7.50000000 
100.13500000 14.87410000 7.50000000 
100.83100000 13.63850000 7.50000000 
100.10800000 12.41830000 7.50000000 
100.80400000 11.18260000 7.50000000 
100.08200000 9.96243000 7.50000000 
102.30200000 18.53470000 7.50000000 
102.99800000 17.29910000 7.50000000 
102.27500000 16.07890000 7.50000000 
102.97100000 14.84320000 7.50000000 
102.24800000 13.62300000 7.50000000 
102.94400000 12.38740000 7.50000000 
102.22200000 11.16720000 7.50000000 
102.91700000 9.93154000 7.50000000 
105.13800000 18.50390000 7.50000000 
104.41500000 17.28370000 7.50000000 
105.11100000 16.04800000 7.50000000 
104.38900000 14.82780000 7.50000000 
105.08400000 13.59210000 7.50000000 
104.36200000 12.37190000 7.50000000 
105.05700000 11.13630000 7.50000000 
104.33500000 9.91609000 7.50000000 
106.55600000 18.48840000 7.50000000 
107.25100000 17.25280000 7.50000000 
106.52900000 16.03260000 7.50000000 
107.22400000 14.79690000 7.50000000 
106.50200000 13.57670000 7.50000000 
107.19800000 12.34110000 7.50000000 
106.47500000 11.12080000 7.50000000 
107.17100000 9.88520000 7.50000000 
109.39100000 18.45750000 7.50000000 
108.66900000 17.23730000 7.50000000 
109.36500000 16.00170000 7.50000000 
108.64200000 14.78150000 7.50000000 
109.33800000 13.54580000 7.50000000 
108.61600000 12.32560000 7.50000000 
109.31100000 11.09000000 7.50000000 
108.58900000 9.86975000 7.50000000 
110.80900000 18.44210000 7.50000000 
111.50500000 17.20640000 7.50000000 
110.78300000 15.98620000 7.50000000 
111.47800000 14.75060000 7.50000000 