file written by TR
1.000000
121.242844 0.000000 0.000000
60.621422 104.999383 0.000000
0.000000 0.000000 15.000000
Type1
9748
Cartesian
0.721000 1.221000 3.000000
0.000000 0.000000 3.000000
2.886000 4.883000 3.000000
2.164000 3.662000 3.000000
2.861000 2.427000 3.000000
2.139000 1.206000 3.000000
5.050000 8.545000 3.000000
4.328000 7.325000 3.000000
5.025000 6.089000 3.000000
4.303000 4.869000 3.000000
5.000000 3.634000 3.000000
4.279000 2.413000 3.000000
4.975000 1.178000 3.000000
7.214000 12.208000 3.000000
6.492000 10.987001 3.000000
7.189000 9.752000 3.000000
6.468000 8.531000 3.000000
7.164000 7.296000 3.000000
6.443000 6.075000 3.000000
7.139000 4.840000 3.000000
6.418000 3.619000 3.000000
7.114000 2.384000 3.000000
6.393000 1.163000 3.000000
9.378000 15.870000 3.000000
8.657000 14.649000 3.000000
9.353000 13.414000 3.000000
8.632000 12.193000 3.000000
9.328000 10.958000 3.000000
8.607000 9.737001 3.000000
9.303000 8.502000 3.000000
8.582000 7.281000 3.000000
9.279000 6.046000 3.000000
8.557000 4.826000 3.000000
9.254000 3.590000 3.000000
8.532000 2.370000 3.000000
9.229000 1.135000 3.000000
11.542000 19.532000 3.000000
10.821000 18.311001 3.000000
11.517000 17.076000 3.000000
10.796000 15.855000 3.000000
11.492000 14.620000 3.000000
10.771000 13.400000 3.000000
11.468000 12.164000 3.000000
10.746000 10.944000 3.000000
11.443000 9.709000 3.000000
10.721000 8.488000 3.000000
11.418000 7.253000 3.000000
10.696000 6.032000 3.000000
11.393000 4.797000 3.000000
10.672000 3.576000 3.000000
11.368000 2.341000 3.000000
10.647000 1.120000 3.000000
13.706000 23.194000 3.000000
12.985000 21.974001 3.000000
13.681000 20.738001 3.000000
12.960000 19.518000 3.000000
13.657000 18.283001 3.000000
12.935000 17.062000 3.000000
13.632000 15.827000 3.000000
12.910000 14.606000 3.000000
13.607000 13.371000 3.000000
12.885000 12.150000 3.000000
13.582000 10.915000 3.000000
12.861000 9.694000 3.000000
13.557000 8.459000 3.000000
12.836001 7.238000 3.000000
13.532000 6.003000 3.000000
12.811000 4.782000 3.000000
13.507000 3.547000 3.000000
12.786000 2.327000 3.000000
13.482000 1.091000 3.000000
15.871000 26.857000 3.000000
15.149000 25.636000 3.000000
15.846000 24.400999 3.000000
15.124000 23.180000 3.000000
15.821000 21.945000 3.000000
15.099000 20.724001 3.000000
15.796000 19.489000 3.000000
15.075000 18.268000 3.000000
15.771000 17.033001 3.000000
15.050000 15.812000 3.000000
15.746000 14.577000 3.000000
15.025000 13.357000 3.000000
15.721000 12.121000 3.000000
15.000000 10.901000 3.000000
15.696000 9.666000 3.000000
14.975000 8.445000 3.000000
15.672000 7.210000 3.000000
14.950000 5.989000 3.000000
15.647000 4.754000 3.000000
14.925000 3.533000 3.000000
15.622000 2.298000 3.000000
14.900000 1.077000 3.000000
18.035000 30.518999 3.000000
17.313000 29.298000 3.000000
18.010000 28.063000 3.000000
17.288000 26.841999 3.000000
17.985001 25.607000 3.000000
17.264000 24.386000 3.000000
17.959999 23.150999 3.000000
17.239000 21.931000 3.000000
17.935000 20.695000 3.000000
17.214001 19.475000 3.000000
17.910000 18.240000 3.000000
17.188999 17.018999 3.000000
17.885000 15.784000 3.000000
17.164000 14.563000 3.000000
17.861000 13.328000 3.000000
17.139000 12.107000 3.000000
17.836001 10.872000 3.000000
17.114000 9.651000 3.000000
17.811001 8.416000 3.000000
17.089001 7.195000 3.000000
17.785999 5.960000 3.000000
17.065001 4.739000 3.000000
17.761000 3.504000 3.000000
17.040001 2.284000 3.000000
17.736000 1.048000 3.000000
20.198999 34.181000 3.000000
19.476999 32.959999 3.000000
20.174000 31.725000 3.000000
19.452999 30.504999 3.000000
20.149000 29.268999 3.000000
19.427999 28.049000 3.000000
20.124001 26.813999 3.000000
19.403000 25.593000 3.000000
20.099001 24.358000 3.000000
19.378000 23.136999 3.000000
20.073999 21.902000 3.000000
19.353001 20.681000 3.000000
20.049999 19.445999 3.000000
19.327999 18.225000 3.000000
20.025000 16.990000 3.000000
19.302999 15.769000 3.000000
20.000000 14.534000 3.000000
19.278000 13.313000 3.000000
19.975000 12.078000 3.000000
19.254000 10.858000 3.000000
19.950001 9.622000 3.000000
19.229000 8.402000 3.000000
19.924999 7.167000 3.000000
19.204000 5.946000 3.000000
19.900000 4.711000 3.000000
19.179001 3.490000 3.000000
19.875000 2.255000 3.000000
19.153999 1.034000 3.000000
22.363001 37.842999 3.000000
21.642000 36.623001 3.000000
22.337999 35.388000 3.000000
21.617001 34.167000 3.000000
22.313000 32.931999 3.000000
21.591999 31.711001 3.000000
22.288000 30.476000 3.000000
21.567000 29.254999 3.000000
22.264000 28.020000 3.000000
21.542000 26.799000 3.000000
22.239000 25.563999 3.000000
21.517000 24.343000 3.000000
22.214001 23.108000 3.000000
21.492001 21.886999 3.000000
22.188999 20.652000 3.000000
21.466999 19.431999 3.000000
22.164000 18.195999 3.000000
21.443001 16.976000 3.000000
22.139000 15.741000 3.000000
21.417999 14.520001 3.000000
22.114000 13.285000 3.000000
21.393000 12.064000 3.000000
22.089001 10.829000 3.000000
21.368000 9.608000 3.000000
22.065001 8.373000 3.000000
21.343000 7.152000 3.000000
22.040001 5.917000 3.000000
21.318001 4.696000 3.000000
22.014999 3.461000 3.000000
21.292999 2.240000 3.000000
21.990000 1.005000 3.000000
24.527000 41.506000 3.000000
23.806000 40.285000 3.000000
24.502001 39.049999 3.000000
23.781000 37.828999 3.000000
24.476999 36.594002 3.000000
23.756000 35.373001 3.000000
24.452999 34.138000 3.000000
23.731001 32.917000 3.000000
24.427999 31.681999 3.000000
23.705999 30.461001 3.000000
24.403000 29.226000 3.000000
23.681000 28.006000 3.000000
24.378000 26.770000 3.000000
23.657000 25.549999 3.000000
24.353001 24.315001 3.000000
23.632000 23.094000 3.000000
24.327999 21.858999 3.000000
23.607000 20.638001 3.000000
24.302999 19.403000 3.000000
23.582001 18.181999 3.000000
24.278000 16.947001 3.000000
23.556999 15.726000 3.000000
24.254000 14.491000 3.000000
23.532000 13.270001 3.000000
24.229000 12.035000 3.000000
23.507000 10.814000 3.000000
24.204000 9.579000 3.000000
23.482000 8.359000 3.000000
24.179001 7.123000 3.000000
23.458000 5.903000 3.000000
24.153999 4.668000 3.000000
23.433001 3.447000 3.000000
24.129000 2.212000 3.000000
23.408001 0.991000 3.000000
26.691000 45.167999 3.000000
25.969999 43.946999 3.000000
26.666000 42.712002 3.000000
25.945000 41.491001 3.000000
26.642000 40.256000 3.000000
25.920000 39.035000 3.000000
26.617001 37.799999 3.000000
25.895001 36.580002 3.000000
26.591999 35.344002 3.000000
25.870001 34.124001 3.000000
26.567000 32.889000 3.000000
25.846001 31.667999 3.000000
26.542000 30.433001 3.000000
25.820999 29.212000 3.000000
26.517000 27.976999 3.000000
25.796000 26.756000 3.000000
26.492001 25.521000 3.000000
25.771000 24.299999 3.000000
26.466999 23.065001 3.000000
25.746000 21.844000 3.000000
26.443001 20.608999 3.000000
25.721001 19.388001 3.000000
26.417999 18.153000 3.000000
25.695999 16.933001 3.000000
26.393000 15.697000 3.000000
25.671000 14.477000 3.000000
26.368000 13.242000 3.000000
25.646999 12.021000 3.000000
26.343000 10.786000 3.000000
25.622000 9.565000 3.000000
26.318001 8.330000 3.000000
25.597000 7.109000 3.000000
26.292999 5.874000 3.000000
25.572001 4.653000 3.000000
26.268000 3.418000 3.000000
25.547001 2.197000 3.000000
26.244000 0.962000 3.000000
28.855000 48.830002 3.000000
28.134001 47.609001 3.000000
28.830999 46.374001 3.000000
28.108999 45.153999 3.000000
28.806000 43.917999 3.000000
28.084000 42.698002 3.000000
28.781000 41.463001 3.000000
28.059000 40.242001 3.000000
28.756000 39.007000 3.000000
28.035000 37.785999 3.000000
28.731001 36.550999 3.000000
28.010000 35.330002 3.000000
28.705999 34.095001 3.000000
27.985001 32.874001 3.000000
28.681000 31.639000 3.000000
27.959999 30.417999 3.000000
28.656000 29.183001 3.000000
27.935000 27.962000 3.000000
28.632000 26.726999 3.000000
27.910000 25.507000 3.000000
28.607000 24.271999 3.000000
27.885000 23.051001 3.000000
28.582001 21.816000 3.000000
27.860001 20.594999 3.000000
28.556999 19.360001 3.000000
27.836001 18.139000 3.000000
28.532000 16.903999 3.000000
27.811001 15.683000 3.000000
28.507000 14.448000 3.000000
27.785999 13.227000 3.000000
28.482000 11.992000 3.000000
27.761000 10.771000 3.000000
28.457001 9.536000 3.000000
27.736000 8.316000 3.000000
28.433001 7.080000 3.000000
27.711001 5.860000 3.000000
28.408001 4.625000 3.000000
27.686001 3.404000 3.000000
28.382999 2.169000 3.000000
27.660999 0.948000 3.000000
31.020000 52.493000 3.000000
30.298000 51.271999 3.000000
30.995001 50.036999 3.000000
30.273001 48.816002 3.000000
30.969999 47.581001 3.000000
30.249001 46.360001 3.000000
30.945000 45.125000 3.000000
30.224001 43.903999 3.000000
30.920000 42.668999 3.000000
30.198999 41.448002 3.000000
30.895001 40.213001 3.000000
30.174000 38.992001 3.000000
30.870001 37.757000 3.000000
30.149000 36.536999 3.000000
30.846001 35.300999 3.000000
30.124001 34.081001 3.000000
30.820999 32.846001 3.000000
30.099001 31.625000 3.000000
30.796000 30.389999 3.000000
30.073999 29.169001 3.000000
30.771000 27.934000 3.000000
30.049999 26.712999 3.000000
30.746000 25.478001 3.000000
30.025000 24.257000 3.000000
30.721001 23.021999 3.000000
30.000000 21.801001 3.000000
30.695999 20.566000 3.000000
29.975000 19.344999 3.000000
30.671000 18.110001 3.000000
29.950001 16.889999 3.000000
30.646999 15.654000 3.000000
29.924999 14.434000 3.000000
30.622000 13.199000 3.000000
29.900000 11.978000 3.000000
30.597000 10.743000 3.000000
29.875000 9.522000 3.000000
30.572001 8.287000 3.000000
29.851000 7.066000 3.000000
30.547001 5.831000 3.000000
29.826000 4.610000 3.000000
30.521999 3.375000 3.000000
29.801001 2.154000 3.000000
30.497000 0.919000 3.000000
33.183998 56.154999 3.000000
32.462002 54.933998 3.000000
33.159000 53.699001 3.000000
32.438000 52.478001 3.000000
33.133999 51.243000 3.000000
32.412998 50.021999 3.000000
33.109001 48.786999 3.000000
32.388000 47.566002 3.000000
33.084000 46.331001 3.000000
32.362999 45.111000 3.000000
33.058998 43.875000 3.000000
32.338001 42.654999 3.000000
33.035000 41.419998 3.000000
32.313000 40.199001 3.000000
33.009998 38.964001 3.000000
32.287998 37.743000 3.000000
32.985001 36.507999 3.000000
32.263000 35.286999 3.000000
32.959999 34.051998 3.000000
32.238998 32.831001 3.000000
32.935001 31.596001 3.000000
32.214001 30.375000 3.000000
32.910000 29.139999 3.000000
32.188999 27.919001 3.000000
32.884998 26.684000 3.000000
32.164001 25.464001 3.000000
32.860001 24.228001 3.000000
32.139000 23.007999 3.000000
32.835999 21.773001 3.000000
32.113998 20.552000 3.000000
32.811001 19.316999 3.000000
32.089001 18.096001 3.000000
32.785999 16.861000 3.000000
32.063999 15.640000 3.000000
32.761002 14.405000 3.000000
32.040001 13.184000 3.000000
32.736000 11.949000 3.000000
32.014999 10.728000 3.000000
32.710999 9.493000 3.000000
31.990000 8.272000 3.000000
32.686001 7.037000 3.000000
31.965000 5.817000 3.000000
32.660999 4.581000 3.000000
31.940001 3.361000 3.000000
32.637001 2.126000 3.000000
31.915001 0.905000 3.000000
35.348000 59.817001 3.000000
34.626999 58.596001 3.000000
35.323002 57.361000 3.000000
34.602001 56.139999 3.000000
35.298000 54.904999 3.000000
34.577000 53.685001 3.000000
35.272999 52.449001 3.000000
34.551998 51.229000 3.000000
35.248001 49.994000 3.000000
34.527000 48.772999 3.000000
35.223999 47.537998 3.000000
34.501999 46.317001 3.000000
35.199001 45.082001 3.000000
34.477001 43.861000 3.000000
35.174000 42.625999 3.000000
34.452000 41.404999 3.000000
35.148998 40.169998 3.000000
34.428001 38.949001 3.000000
35.124001 37.714001 3.000000
34.403000 36.493000 3.000000
35.098999 35.257999 3.000000
34.377998 34.037998 3.000000
35.074001 32.801998 3.000000
34.353001 31.582001 3.000000
35.049000 30.347000 3.000000
34.327999 29.125999 3.000000
35.025002 27.891001 3.000000
34.303001 26.670000 3.000000
35.000000 25.434999 3.000000
34.278000 24.214001 3.000000
34.974999 22.979000 3.000000
34.252998 21.757999 3.000000
34.950001 20.523001 3.000000
34.229000 19.302000 3.000000
34.924999 18.066999 3.000000
34.203999 16.846001 3.000000
34.900002 15.611000 3.000000
34.179001 14.391000 3.000000
34.875000 13.155000 3.000000
34.153999 11.935000 3.000000
34.849999 10.700000 3.000000
34.129002 9.479000 3.000000
34.826000 8.244000 3.000000
34.104000 7.023000 3.000000
34.800999 5.788000 3.000000
34.078999 4.567000 3.000000
34.776001 3.332000 3.000000
34.054001 2.111000 3.000000
34.750999 0.876000 3.000000
37.512001 63.479000 3.000000
36.791000 62.258999 3.000000
37.487000 61.022999 3.000000
36.765999 59.803001 3.000000
37.462002 58.568001 3.000000
36.741001 57.347000 3.000000
37.438000 56.112000 3.000000
36.716000 54.890999 3.000000
37.412998 53.655998 3.000000
36.691002 52.435001 3.000000
37.388000 51.200001 3.000000
36.666000 49.979000 3.000000
37.362999 48.744000 3.000000
36.641998 47.522999 3.000000
37.338001 46.287998 3.000000
36.617001 45.067001 3.000000
37.313000 43.832001 3.000000
36.591999 42.612000 3.000000
37.287998 41.375999 3.000000
36.567001 40.155998 3.000000
37.263000 38.921001 3.000000
36.542000 37.700001 3.000000
37.238998 36.465000 3.000000
36.516998 35.244000 3.000000
37.214001 34.008999 3.000000
36.492001 32.787998 3.000000
37.188999 31.552999 3.000000
36.466999 30.332001 3.000000
37.164001 29.097000 3.000000
36.443001 27.876000 3.000000
37.139000 26.641001 3.000000
36.417999 25.420000 3.000000
37.113998 24.184999 3.000000
36.393002 22.965000 3.000000
37.089001 21.729000 3.000000
36.368000 20.509001 3.000000
37.063999 19.274000 3.000000
36.342999 18.052999 3.000000
37.040001 16.818001 3.000000
36.318001 15.597000 3.000000
37.014999 14.362001 3.000000
36.292999 13.141000 3.000000
36.990002 11.906000 3.000000
36.268002 10.685000 3.000000
36.965000 9.450000 3.000000
36.244000 8.229000 3.000000
36.939999 6.994000 3.000000
36.219002 5.773000 3.000000
36.915001 4.538000 3.000000
36.194000 3.318000 3.000000
36.889999 2.082000 3.000000
36.168999 0.862000 3.000000
39.675999 67.141998 3.000000
38.955002 65.920998 3.000000
39.651001 64.685997 3.000000
38.930000 63.465000 3.000000
39.626999 62.230000 3.000000
38.904999 61.008999 3.000000
39.602001 59.773998 3.000000
38.880001 58.553001 3.000000
39.577000 57.318001 3.000000
38.855000 56.097000 3.000000
39.551998 54.862000 3.000000
38.831001 53.640999 3.000000
39.527000 52.405998 3.000000
38.806000 51.186001 3.000000
39.501999 49.950001 3.000000
38.780998 48.730000 3.000000
39.477001 47.494999 3.000000
38.756000 46.273998 3.000000
39.452000 45.039001 3.000000
38.730999 43.818001 3.000000
39.428001 42.583000 3.000000
38.706001 41.362000 3.000000
39.403000 40.126999 3.000000
38.681000 38.905998 3.000000
39.377998 37.671002 3.000000
38.655998 36.450001 3.000000
39.353001 35.215000 3.000000
38.632000 33.994000 3.000000
39.327999 32.758999 3.000000
38.606999 31.539000 3.000000
39.303001 30.302999 3.000000
38.582001 29.083000 3.000000
39.278000 27.848000 3.000000
38.556999 26.627001 3.000000
39.252998 25.392000 3.000000
38.532001 24.171000 3.000000
39.229000 22.936001 3.000000
38.507000 21.715000 3.000000
39.203999 20.480000 3.000000
38.481999 19.259001 3.000000
39.179001 18.024000 3.000000
38.457001 16.802999 3.000000
39.153999 15.568000 3.000000
38.432999 14.347000 3.000000
39.129002 13.112001 3.000000
38.408001 11.892000 3.000000
39.104000 10.656000 3.000000
38.382999 9.436000 3.000000
39.078999 8.201000 3.000000
38.358002 6.980000 3.000000
39.054001 5.745000 3.000000
38.333000 4.524000 3.000000
39.029999 3.289000 3.000000
38.307999 2.068000 3.000000
39.005001 0.833000 3.000000
41.840000 70.804001 3.000000
41.119000 69.583000 3.000000
41.816002 68.348000 3.000000
41.094002 67.126999 3.000000
41.791000 65.891998 3.000000
41.069000 64.670998 3.000000
41.765999 63.436001 3.000000
41.043999 62.215000 3.000000
41.741001 60.980000 3.000000
41.020001 59.759998 3.000000
41.716000 58.523998 3.000000
40.994999 57.304001 3.000000
41.691002 56.069000 3.000000
40.970001 54.848000 3.000000
41.666000 53.612999 3.000000
40.945000 52.391998 3.000000
41.640999 51.157001 3.000000
40.919998 49.936001 3.000000
41.617001 48.701000 3.000000
40.895001 47.480000 3.000000
41.591999 46.244999 3.000000
40.869999 45.023998 3.000000
41.567001 43.789001 3.000000
40.845001 42.568001 3.000000
41.542000 41.333000 3.000000
40.820999 40.112999 3.000000
41.516998 38.876999 3.000000
40.796002 37.657001 3.000000
41.492001 36.422001 3.000000
40.771000 35.201000 3.000000
41.466999 33.966000 3.000000
40.745998 32.744999 3.000000
41.442001 31.510000 3.000000
40.721001 30.289000 3.000000
41.417999 29.054001 3.000000
40.695999 27.833000 3.000000
41.393002 26.598000 3.000000
40.671002 25.377001 3.000000
41.368000 24.142000 3.000000
40.646000 22.921000 3.000000
41.342999 21.686001 3.000000
40.622002 20.466000 3.000000
41.318001 19.230000 3.000000
40.597000 18.010000 3.000000
41.292999 16.775000 3.000000
40.571999 15.554000 3.000000
41.268002 14.319000 3.000000
40.547001 13.098000 3.000000
41.243000 11.863000 3.000000
40.521999 10.642000 3.000000
41.219002 9.407000 3.000000
40.497002 8.186000 3.000000
41.194000 6.951000 3.000000
40.472000 5.730000 3.000000
41.168999 4.495000 3.000000
40.446999 3.274000 3.000000
41.144001 2.039000 3.000000
40.423000 0.819000 3.000000
44.005001 74.466003 3.000000
43.283001 73.245003 3.000000
43.980000 72.010002 3.000000
43.257999 70.789001 3.000000
43.955002 69.554001 3.000000
43.233002 68.334000 3.000000
43.930000 67.098000 3.000000
43.209000 65.877998 3.000000
43.904999 64.642998 3.000000
43.183998 63.422001 3.000000
43.880001 62.187000 3.000000
43.159000 60.966000 3.000000
43.855000 59.730999 3.000000
43.133999 58.509998 3.000000
43.831001 57.275002 3.000000
43.109001 56.054001 3.000000
43.806000 54.819000 3.000000
43.084000 53.598000 3.000000
43.780998 52.362999 3.000000
43.058998 51.141998 3.000000
43.756000 49.907002 3.000000
43.034000 48.687000 3.000000
43.730999 47.452000 3.000000
43.009998 46.230999 3.000000
43.706001 44.995998 3.000000
42.985001 43.775002 3.000000
43.681000 42.540001 3.000000
42.959999 41.319000 3.000000
43.655998 40.084000 3.000000
42.935001 38.862999 3.000000
43.632000 37.627998 3.000000
42.910000 36.407001 3.000000
43.606999 35.172001 3.000000
42.884998 33.951000 3.000000
43.582001 32.716000 3.000000
42.860001 31.496000 3.000000
43.556999 30.260000 3.000000
42.834999 29.040001 3.000000
43.532001 27.805000 3.000000
42.811001 26.584000 3.000000
43.507000 25.349001 3.000000
42.785999 24.128000 3.000000
43.481999 22.893000 3.000000
42.761002 21.672001 3.000000
43.457001 20.437000 3.000000
42.736000 19.216000 3.000000
43.432999 17.981001 3.000000
42.710999 16.760000 3.000000
43.408001 15.525000 3.000000
42.686001 14.304000 3.000000
43.382999 13.069000 3.000000
42.660999 11.849000 3.000000
43.358002 10.613000 3.000000
42.636002 9.393000 3.000000
43.333000 8.158000 3.000000
42.612000 6.937000 3.000000
43.307999 5.702000 3.000000
42.587002 4.481000 3.000000
43.283001 3.246000 3.000000
42.562000 2.025000 3.000000
43.257999 0.790000 3.000000
46.168999 78.127998 3.000000
45.446999 76.907997 3.000000
46.144001 75.672996 3.000000
45.423000 74.452004 3.000000
46.119000 73.217003 3.000000
45.397999 71.996002 3.000000
46.094002 70.761002 3.000000
45.373001 69.540001 3.000000
46.069000 68.305000 3.000000
45.348000 67.084000 3.000000
46.043999 65.848999 3.000000
45.323002 64.627998 3.000000
46.020001 63.393002 3.000000
45.298000 62.172001 3.000000
45.994999 60.937000 3.000000
45.272999 59.716999 3.000000
45.970001 58.480999 3.000000
45.248001 57.261002 3.000000
45.945000 56.026001 3.000000
45.223999 54.805000 3.000000
45.919998 53.570000 3.000000
45.199001 52.348999 3.000000
45.895001 51.113998 3.000000
45.174000 49.893002 3.000000
45.869999 48.658001 3.000000
45.148998 47.437000 3.000000
45.845001 46.202000 3.000000
45.124001 44.980999 3.000000
45.820999 43.745998 3.000000
45.098999 42.525002 3.000000
45.796002 41.290001 3.000000
45.074001 40.070000 3.000000
45.771000 38.834000 3.000000
45.049000 37.613998 3.000000
45.745998 36.379002 3.000000
45.025002 35.158001 3.000000
45.721001 33.923000 3.000000
45.000000 32.702000 3.000000
45.695999 31.466999 3.000000
44.974999 30.246000 3.000000
45.671002 29.011000 3.000000
44.950001 27.790001 3.000000
45.646000 26.555000 3.000000
44.924999 25.334000 3.000000
45.622002 24.099001 3.000000
44.900002 22.878000 3.000000
45.597000 21.643000 3.000000
44.875000 20.423000 3.000000
45.571999 19.187000 3.000000
44.849999 17.966999 3.000000
45.547001 16.732000 3.000000
44.826000 15.511000 3.000000
45.521999 14.276000 3.000000
44.800999 13.055000 3.000000
45.497002 11.820000 3.000000
44.776001 10.599000 3.000000
45.472000 9.364000 3.000000
44.750999 8.143000 3.000000
45.446999 6.908000 3.000000
44.726002 5.687000 3.000000
45.423000 4.452000 3.000000
44.701000 3.231000 3.000000
45.397999 1.996000 3.000000
44.675999 0.776000 3.000000
48.333000 81.791000 3.000000
47.612000 80.570000 3.000000
48.307999 79.334999 3.000000
47.587002 78.113998 3.000000
48.283001 76.878998 3.000000
47.562000 75.657997 3.000000
48.257999 74.422996 3.000000
47.536999 73.202004 3.000000
48.233002 71.967003 3.000000
47.512001 70.746002 3.000000
48.209000 69.511002 3.000000
47.487000 68.291000 3.000000
48.183998 67.055000 3.000000
47.462002 65.834999 3.000000
48.159000 64.599998 3.000000
47.437000 63.379002 3.000000
48.133999 62.144001 3.000000
47.412998 60.923000 3.000000
48.109001 59.688000 3.000000
47.388000 58.466999 3.000000
48.084000 57.231999 3.000000
47.362999 56.011002 3.000000
48.058998 54.776001 3.000000
47.338001 53.555000 3.000000
48.034000 52.320000 3.000000
47.313000 51.098999 3.000000
48.009998 49.863998 3.000000
47.287998 48.644001 3.000000
47.985001 47.408001 3.000000
47.263000 46.188000 3.000000
47.959999 44.952999 3.000000
47.237999 43.731999 3.000000
47.935001 42.497002 3.000000
47.214001 41.276001 3.000000
47.910000 40.041000 3.000000
47.188999 38.820000 3.000000
47.884998 37.584999 3.000000
47.164001 36.363998 3.000000
47.860001 35.129002 3.000000
47.139000 33.908001 3.000000
47.834999 32.673000 3.000000
47.113998 31.452000 3.000000
47.811001 30.216999 3.000000
47.089001 28.997000 3.000000
47.785999 27.761000 3.000000
47.063999 26.541000 3.000000
47.761002 25.306000 3.000000
47.039001 24.084999 3.000000
47.736000 22.850000 3.000000
47.014999 21.629000 3.000000
47.710999 20.393999 3.000000
46.990002 19.173000 3.000000
47.686001 17.938000 3.000000
46.965000 16.716999 3.000000
47.660999 15.482000 3.000000
46.939999 14.261000 3.000000
47.636002 13.026000 3.000000
46.915001 11.805000 3.000000
47.612000 10.570000 3.000000
46.889999 9.350000 3.000000
47.587002 8.114000 3.000000
46.865002 6.894000 3.000000
47.562000 5.659000 3.000000
46.840000 4.438000 3.000000
47.536999 3.203000 3.000000
46.816002 1.982000 3.000000
47.512001 0.747000 3.000000
50.497002 85.453003 3.000000
49.776001 84.232002 3.000000
50.472000 82.997002 3.000000
49.750999 81.776001 3.000000
50.446999 80.541000 3.000000
49.726002 79.320000 3.000000
50.422001 78.084999 3.000000
49.701000 76.864998 3.000000
50.397999 75.628998 3.000000
49.675999 74.408997 3.000000
50.373001 73.174004 3.000000
49.651001 71.953003 3.000000
50.348000 70.718002 3.000000
49.625999 69.497002 3.000000
50.323002 68.262001 3.000000
49.602001 67.041000 3.000000
50.298000 65.806000 3.000000
49.577000 64.584999 3.000000
50.272999 63.349998 3.000000
49.551998 62.129002 3.000000
50.248001 60.894001 3.000000
49.527000 59.673000 3.000000
50.223000 58.438000 3.000000
49.501999 57.217999 3.000000
50.199001 55.981998 3.000000
49.477001 54.762001 3.000000
50.174000 53.527000 3.000000
49.452000 52.306000 3.000000
50.148998 51.070999 3.000000
49.426998 49.849999 3.000000
50.124001 48.615002 3.000000
49.403000 47.394001 3.000000
50.098999 46.159000 3.000000
49.377998 44.938000 3.000000
50.074001 43.702999 3.000000
49.353001 42.481999 3.000000
50.049000 41.247002 3.000000
49.327999 40.026001 3.000000
50.023998 38.791000 3.000000
49.303001 37.570999 3.000000
50.000000 36.334999 3.000000
49.278000 35.115002 3.000000
49.974999 33.880001 3.000000
49.252998 32.659000 3.000000
49.950001 31.424000 3.000000
49.228001 30.202999 3.000000
49.924999 28.968000 3.000000
49.203999 27.747000 3.000000
49.900002 26.511999 3.000000
49.179001 25.291000 3.000000
49.875000 24.056000 3.000000
49.153999 22.834999 3.000000
49.849999 21.600000 3.000000
49.129002 20.379000 3.000000
49.825001 19.143999 3.000000
49.104000 17.924000 3.000000
49.800999 16.688000 3.000000
49.078999 15.468000 3.000000
49.776001 14.233000 3.000000
49.054001 13.012000 3.000000
49.750999 11.777000 3.000000
49.028999 10.556000 3.000000
49.726002 9.321000 3.000000
49.005001 8.100000 3.000000
49.701000 6.865000 3.000000
48.980000 5.644000 3.000000
49.675999 4.409000 3.000000
48.955002 3.188000 3.000000
49.651001 1.953000 3.000000
48.930000 0.732000 3.000000
52.660999 89.114998 3.000000
51.939999 87.893997 3.000000
52.636002 86.658997 3.000000
51.915001 85.439003 3.000000
52.612000 84.203003 3.000000
51.889999 82.983002 3.000000
52.587002 81.748001 3.000000
51.865002 80.527000 3.000000
52.562000 79.292000 3.000000
51.840000 78.070999 3.000000
52.536999 76.835999 3.000000
51.816002 75.614998 3.000000
52.512001 74.379997 3.000000
51.791000 73.158997 3.000000
52.487000 71.924004 3.000000
51.765999 70.703003 3.000000
52.462002 69.468002 3.000000
51.741001 68.247002 3.000000
52.437000 67.012001 3.000000
51.716000 65.792000 3.000000
52.412998 64.556000 3.000000
51.691002 63.335999 3.000000
52.388000 62.101002 3.000000
51.666000 60.880001 3.000000
52.362999 59.645001 3.000000
51.640999 58.424000 3.000000
52.338001 57.188999 3.000000
51.617001 55.967999 3.000000
52.313000 54.733002 3.000000
51.591999 53.512001 3.000000
52.287998 52.277000 3.000000
51.567001 51.056000 3.000000
52.263000 49.820999 3.000000
51.542000 48.599998 3.000000
52.237999 47.365002 3.000000
51.516998 46.145001 3.000000
52.214001 44.909000 3.000000
51.492001 43.688999 3.000000
52.188999 42.453999 3.000000
51.466999 41.233002 3.000000
52.164001 39.998001 3.000000
51.442001 38.777000 3.000000
52.139000 37.542000 3.000000
51.417999 36.320999 3.000000
52.113998 35.085999 3.000000
51.393002 33.865002 3.000000
52.089001 32.630001 3.000000
51.368000 31.409000 3.000000
52.063999 30.174000 3.000000
51.342999 28.952999 3.000000
52.039001 27.718000 3.000000
51.318001 26.497999 3.000000
52.014999 25.261999 3.000000
51.292999 24.042000 3.000000
51.990002 22.806999 3.000000
51.268002 21.586001 3.000000
51.965000 20.351000 3.000000
51.243000 19.129999 3.000000
51.939999 17.895001 3.000000
51.219002 16.674000 3.000000
51.915001 15.439000 3.000000
51.194000 14.218000 3.000000
51.889999 12.983000 3.000000
51.168999 11.762000 3.000000
51.865002 10.527000 3.000000
51.144001 9.306000 3.000000
51.840000 8.071000 3.000000
51.119000 6.851000 3.000000
51.816002 5.615000 3.000000
51.094002 4.395000 3.000000
51.791000 3.160000 3.000000
51.069000 1.939000 3.000000
51.765999 0.704000 3.000000
54.825001 92.777000 3.000000
54.104000 91.556999 3.000000
54.800999 90.321999 3.000000
54.078999 89.100998 3.000000
54.776001 87.865997 3.000000
54.054001 86.644997 3.000000
54.750999 85.410004 3.000000
54.028999 84.189003 3.000000
54.726002 82.954002 3.000000
54.005001 81.733002 3.000000
54.701000 80.498001 3.000000
53.980000 79.277000 3.000000
54.675999 78.042000 3.000000
53.955002 76.820999 3.000000
54.651001 75.585999 3.000000
53.930000 74.365997 3.000000
54.625999 73.129997 3.000000
53.904999 71.910004 3.000000
54.602001 70.675003 3.000000
53.880001 69.454002 3.000000
54.577000 68.219002 3.000000
53.855000 66.998001 3.000000
54.551998 65.763001 3.000000
53.830002 64.542000 3.000000
54.527000 63.306999 3.000000
53.806000 62.085999 3.000000
54.501999 60.851002 3.000000
53.780998 59.630001 3.000000
54.477001 58.395001 3.000000
53.756000 57.174000 3.000000
54.452000 55.938999 3.000000
53.730999 54.719002 3.000000
54.426998 53.483002 3.000000
53.706001 52.263000 3.000000
54.403000 51.028000 3.000000
53.681000 49.806999 3.000000
54.377998 48.571999 3.000000
53.655998 47.351002 3.000000
54.353001 46.116001 3.000000
53.631000 44.895001 3.000000
54.327999 43.660000 3.000000
53.606999 42.438999 3.000000
54.303001 41.203999 3.000000
53.582001 39.983002 3.000000
54.278000 38.748001 3.000000
53.556999 37.527000 3.000000
54.252998 36.292000 3.000000
53.532001 35.071999 3.000000
54.228001 33.835999 3.000000
53.507000 32.616001 3.000000
54.203999 31.381000 3.000000
53.481999 30.160000 3.000000
54.179001 28.924999 3.000000
53.457001 27.704000 3.000000
54.153999 26.469000 3.000000
53.431999 25.247999 3.000000
54.129002 24.013001 3.000000
53.408001 22.792000 3.000000
54.104000 21.556999 3.000000
53.382999 20.336001 3.000000
54.078999 19.101000 3.000000
53.358002 17.879999 3.000000
54.054001 16.645000 3.000000
53.333000 15.425000 3.000000
54.028999 14.189000 3.000000
53.307999 12.969000 3.000000
54.005001 11.734000 3.000000
53.283001 10.513000 3.000000
53.980000 9.278000 3.000000
53.257999 8.057000 3.000000
53.955002 6.822000 3.000000
53.233002 5.601000 3.000000
53.930000 4.366000 3.000000
53.209000 3.145000 3.000000
53.904999 1.910000 3.000000
53.183998 0.689000 3.000000
56.990002 96.440003 3.000000
56.268002 95.219002 3.000000
56.965000 93.984001 3.000000
56.243000 92.763001 3.000000
56.939999 91.528000 3.000000
56.217999 90.306999 3.000000
56.915001 89.071999 3.000000
56.194000 87.850998 3.000000
56.889999 86.615997 3.000000
56.168999 85.394997 3.000000
56.865002 84.160004 3.000000
56.144001 82.940002 3.000000
56.840000 81.704002 3.000000
56.119000 80.484001 3.000000
56.814999 79.249001 3.000000
56.094002 78.028000 3.000000
56.791000 76.792999 3.000000
56.069000 75.571999 3.000000
56.765999 74.336998 3.000000
56.043999 73.115997 3.000000
56.741001 71.880997 3.000000
56.019001 70.660004 3.000000
56.716000 69.425003 3.000000
55.994999 68.204002 3.000000
56.691002 66.969002 3.000000
55.970001 65.748001 3.000000
56.666000 64.513001 3.000000
55.945000 63.292999 3.000000
56.640999 62.056999 3.000000
55.919998 60.837002 3.000000
56.616001 59.602001 3.000000
55.895001 58.381000 3.000000
56.591999 57.146000 3.000000
55.869999 55.924999 3.000000
56.567001 54.689999 3.000000