file written by TR
1.000000
48.935451 0.000000 0.000000
24.467726 42.379344 0.000000
0.000000 0.000000 15.000000
Type1
1588
Cartesian
0.740000 1.210000 3.000000
0.000000 0.000000 3.000000
2.958000 4.839000 3.000000
2.219000 3.629000 3.000000
2.897000 2.384000 3.000000
2.157000 1.174000 3.000000
5.177000 8.469000 3.000000
4.437000 7.259000 3.000000
5.115000 6.014000 3.000000
4.376000 4.804000 3.000000
5.054000 3.558000 3.000000
4.314000 2.348000 3.000000
4.992000 1.103000 3.000000
7.396000 12.098000 3.000000
6.656000 10.888000 3.000000
7.334000 9.643000 3.000000
6.595000 8.433000 3.000000
7.273000 7.188000 3.000000
6.533000 5.978000 3.000000
7.211000 4.733000 3.000000
6.471000 3.523000 3.000000
7.149000 2.277000 3.000000
6.410000 1.067000 3.000000
9.615000 15.728000 3.000000
8.875000 14.518000 3.000000
9.553000 13.272000 3.000000
8.813000 12.063000 3.000000
9.491000 10.817000 3.000000
8.752000 9.607000 3.000000
9.430000 8.362001 3.000000
8.690000 7.152000 3.000000
9.368000 5.907000 3.000000
8.628000 4.697000 3.000000
9.306000 3.452000 3.000000
8.567000 2.242000 3.000000
9.245000 0.996000 3.000000
11.833000 19.357000 3.000000
11.094000 18.146999 3.000000
11.772000 16.902000 3.000000
11.032000 15.692000 3.000000
11.710000 14.447000 3.000000
10.970000 13.237001 3.000000
11.648000 11.991000 3.000000
10.909000 10.782000 3.000000
11.587000 9.536000 3.000000
10.847000 8.326000 3.000000
11.525000 7.081000 3.000000
10.786000 5.871000 3.000000
11.463000 4.626000 3.000000
10.724000 3.416000 3.000000
11.402000 2.171000 3.000000
10.662000 0.961000 3.000000
14.052000 22.987000 3.000000
13.312000 21.777000 3.000000
13.990000 20.531000 3.000000
13.251000 19.322001 3.000000
13.929000 18.076000 3.000000
13.189000 16.865999 3.000000
13.867000 15.621000 3.000000
13.128000 14.411000 3.000000
13.805000 13.166000 3.000000
13.066000 11.956000 3.000000
13.744001 10.710000 3.000000
13.004000 9.501000 3.000000
13.682000 8.255000 3.000000
12.943000 7.045000 3.000000
13.621000 5.800000 3.000000
12.881000 4.590000 3.000000
13.559000 3.345000 3.000000
12.819000 2.135000 3.000000
13.497000 0.890000 3.000000
16.271000 26.615999 3.000000
15.531000 25.406000 3.000000
16.209000 24.160999 3.000000
15.470000 22.951000 3.000000
16.146999 21.705999 3.000000
15.408000 20.496000 3.000000
16.086000 19.250000 3.000000
15.346000 18.041000 3.000000
16.024000 16.795000 3.000000
15.285000 15.585000 3.000000
15.963000 14.340000 3.000000
15.223000 13.130000 3.000000
15.901000 11.885000 3.000000
15.161000 10.675000 3.000000
15.839000 9.429000 3.000000
15.100000 8.220000 3.000000
15.778000 6.974000 3.000000
15.038000 5.764000 3.000000
15.716000 4.519000 3.000000
14.976000 3.309000 3.000000
15.654000 2.064000 3.000000
14.915000 0.854000 3.000000
18.489000 30.246000 3.000000
17.750000 29.035999 3.000000
18.427999 27.790001 3.000000
17.688000 26.580000 3.000000
18.365999 25.334999 3.000000
17.627001 24.125000 3.000000
18.305000 22.879999 3.000000
17.565001 21.670000 3.000000
18.243000 20.424999 3.000000
17.503000 19.215000 3.000000
18.181000 17.969000 3.000000
17.442000 16.760000 3.000000
18.120001 15.514000 3.000000
17.379999 14.304000 3.000000
18.058001 13.059000 3.000000
17.318001 11.849000 3.000000
17.996000 10.604000 3.000000
17.257000 9.394000 3.000000
17.935000 8.149000 3.000000
17.195000 6.939000 3.000000
17.872999 5.693000 3.000000
17.134001 4.483000 3.000000
17.812000 3.238000 3.000000
17.072001 2.028000 3.000000
17.750000 0.783000 3.000000
20.708000 33.875000 3.000000
19.969000 32.665001 3.000000
20.646999 31.420000 3.000000
19.907000 30.209999 3.000000
20.584999 28.965000 3.000000
19.844999 27.754999 3.000000
20.523001 26.509001 3.000000
19.784000 25.299999 3.000000
20.462000 24.054001 3.000000
19.722000 22.844000 3.000000
20.400000 21.599001 3.000000
19.660000 20.389000 3.000000
20.337999 19.143999 3.000000
19.599001 17.934000 3.000000
20.277000 16.688000 3.000000
19.537001 15.479000 3.000000
20.215000 14.233000 3.000000
19.476000 13.023000 3.000000
20.153999 11.778000 3.000000
19.414000 10.568000 3.000000
20.091999 9.323000 3.000000
19.351999 8.113000 3.000000
20.030001 6.868000 3.000000
19.291000 5.658000 3.000000
19.969000 4.412000 3.000000
19.229000 3.202000 3.000000
19.907000 1.957000 3.000000
19.167000 0.747000 3.000000
22.927000 37.504002 3.000000
22.187000 36.294998 3.000000
22.865000 35.049000 3.000000
22.125999 33.839001 3.000000
22.804001 32.594002 3.000000
22.063999 31.384001 3.000000
22.742001 30.139000 3.000000
22.002001 28.929001 3.000000
22.680000 27.684000 3.000000
21.941000 26.474001 3.000000
22.619000 25.228001 3.000000
21.879000 24.018999 3.000000
22.556999 22.773001 3.000000
21.818001 21.563000 3.000000
22.496000 20.318001 3.000000
21.756000 19.108000 3.000000
22.434000 17.863001 3.000000
21.694000 16.653000 3.000000
22.372000 15.407000 3.000000
21.632999 14.198000 3.000000
22.311001 12.952000 3.000000
21.570999 11.742000 3.000000
22.249001 10.497000 3.000000
21.509001 9.287000 3.000000
22.187000 8.042000 3.000000
21.448000 6.832000 3.000000
22.125999 5.587000 3.000000
21.386000 4.377000 3.000000
22.063999 3.131000 3.000000
21.325001 1.921000 3.000000
22.002001 0.676000 3.000000
25.146000 41.133999 3.000000
24.406000 39.924000 3.000000
25.084000 38.679001 3.000000
24.344000 37.469002 3.000000
25.021999 36.223000 3.000000
24.283001 35.014000 3.000000
24.961000 33.768002 3.000000
24.221001 32.557999 3.000000
24.899000 31.313000 3.000000
24.160000 30.103001 3.000000
24.837999 28.858000 3.000000
24.098000 27.648001 3.000000
24.775999 26.403000 3.000000
24.035999 25.193001 3.000000
24.714001 23.947001 3.000000
23.975000 22.738001 3.000000
24.653000 21.492001 3.000000
23.913000 20.282000 3.000000
24.591000 19.037001 3.000000
23.851000 17.827000 3.000000
24.528999 16.582001 3.000000
23.790001 15.372000 3.000000
24.468000 14.126000 3.000000
23.728001 12.917000 3.000000
24.406000 11.671000 3.000000
23.667000 10.461001 3.000000
24.344000 9.216000 3.000000
23.605000 8.006000 3.000000
24.283001 6.761000 3.000000
23.542999 5.551000 3.000000
24.221001 4.306000 3.000000
23.482000 3.096000 3.000000
24.160000 1.850000 3.000000
23.420000 0.640000 3.000000
27.302999 42.307999 3.000000
26.563000 41.098000 3.000000
27.240999 39.853001 3.000000
26.502001 38.643002 3.000000
27.180000 37.397999 3.000000
26.440001 36.188000 3.000000
27.118000 34.943001 3.000000
26.378000 33.733002 3.000000
27.056000 32.487000 3.000000
26.316999 31.277000 3.000000
26.995001 30.032000 3.000000
26.254999 28.822001 3.000000
26.933001 27.577000 3.000000
26.193001 26.367001 3.000000
26.871000 25.122000 3.000000
26.132000 23.912001 3.000000
26.809999 22.666000 3.000000
26.070000 21.457001 3.000000
26.747999 20.211001 3.000000
26.009001 19.000999 3.000000
26.686001 17.756000 3.000000
25.947001 16.546000 3.000000
26.625000 15.301000 3.000000
25.885000 14.091000 3.000000
26.563000 12.845000 3.000000
25.823999 11.636000 3.000000
26.502001 10.390000 3.000000
25.761999 9.180000 3.000000
26.440001 7.935000 3.000000
25.700001 6.725000 3.000000
26.378000 5.480000 3.000000
25.639000 4.270000 3.000000
26.316999 3.025000 3.000000
25.577000 1.815000 3.000000
26.254999 0.569000 3.000000
28.719999 42.272999 3.000000
29.398001 41.027000 3.000000
28.659000 39.817001 3.000000
29.337000 38.571999 3.000000
28.597000 37.362000 3.000000
29.275000 36.117001 3.000000
28.535000 34.907002 3.000000
29.212999 33.661999 3.000000
28.474001 32.452000 3.000000
29.152000 31.205999 3.000000
28.412001 29.996000 3.000000
29.090000 28.750999 3.000000
28.351000 27.541000 3.000000
29.028000 26.296000 3.000000
28.289000 25.086000 3.000000
28.966999 23.841000 3.000000
28.226999 22.631000 3.000000
28.905001 21.385000 3.000000
28.166000 20.176001 3.000000
28.844000 18.930000 3.000000
28.104000 17.719999 3.000000
28.782000 16.475000 3.000000
28.042000 15.265000 3.000000
28.719999 14.020001 3.000000
27.981001 12.810000 3.000000
28.659000 11.564000 3.000000
27.919001 10.355000 3.000000
28.597000 9.109000 3.000000
27.857000 7.899000 3.000000
28.535000 6.654000 3.000000
27.796000 5.444000 3.000000
28.474001 4.199000 3.000000
27.733999 2.989000 3.000000
28.412001 1.744000 3.000000
27.673000 0.534000 3.000000
31.555000 42.201000 3.000000
30.816000 40.992001 3.000000
31.494000 39.745998 3.000000
30.754000 38.535999 3.000000
31.431999 37.291000 3.000000
30.693001 36.081001 3.000000
31.370001 34.835999 3.000000
30.631000 33.625999 3.000000
31.309000 32.381000 3.000000
30.569000 31.171000 3.000000
31.247000 29.924999 3.000000
30.507999 28.715000 3.000000
31.186001 27.469999 3.000000
30.445999 26.260000 3.000000
31.124001 25.014999 3.000000
30.384001 23.805000 3.000000
31.062000 22.559999 3.000000
30.323000 21.350000 3.000000
31.000999 20.104000 3.000000
30.261000 18.895001 3.000000
30.938999 17.649000 3.000000
30.198999 16.438999 3.000000
30.877001 15.194000 3.000000
30.138001 13.984000 3.000000
30.816000 12.739000 3.000000
30.076000 11.529000 3.000000
30.754000 10.283000 3.000000
30.014999 9.074000 3.000000
30.693001 7.828000 3.000000
29.952999 6.618000 3.000000
30.631000 5.373000 3.000000
29.891001 4.163000 3.000000
30.569000 2.918000 3.000000
29.830000 1.708000 3.000000
30.507999 0.463000 3.000000
32.973000 42.166000 3.000000
33.651001 40.919998 3.000000
32.910999 39.710999 3.000000
33.589001 38.465000 3.000000
32.849999 37.255001 3.000000
33.528000 36.009998 3.000000
32.787998 34.799999 3.000000
33.466000 33.555000 3.000000
32.726002 32.345001 3.000000
33.403999 31.100000 3.000000
32.665001 29.889999 3.000000
33.342999 28.643999 3.000000
32.603001 27.434000 3.000000
33.280998 26.188999 3.000000
32.541000 24.979000 3.000000
33.219002 23.733999 3.000000
32.480000 22.524000 3.000000
33.158001 21.278999 3.000000
32.417999 20.069000 3.000000
33.096001 18.823000 3.000000
32.356999 17.614000 3.000000
33.035000 16.368000 3.000000
32.294998 15.158000 3.000000
32.973000 13.913000 3.000000
32.233002 12.703000 3.000000
32.910999 11.458000 3.000000
32.172001 10.248000 3.000000
32.849999 9.002000 3.000000
32.110001 7.793000 3.000000
32.787998 6.547000 3.000000
32.048000 5.337000 3.000000
32.726002 4.092000 3.000000
31.987000 2.882000 3.000000
32.665001 1.637000 3.000000
31.924999 0.427000 3.000000
35.807999 42.095001 3.000000
35.068001 40.884998 3.000000
35.745998 39.639000 3.000000
35.007000 38.430000 3.000000
35.685001 37.183998 3.000000
34.945000 35.973999 3.000000
35.623001 34.729000 3.000000
34.882999 33.519001 3.000000
35.561001 32.273998 3.000000
34.821999 31.063999 3.000000
35.500000 29.819000 3.000000
34.759998 28.608999 3.000000
35.438000 27.363001 3.000000
34.699001 26.153999 3.000000
35.376999 24.908001 3.000000
34.637001 23.698000 3.000000
35.314999 22.452999 3.000000
34.575001 21.243000 3.000000
35.252998 19.997999 3.000000
34.514000 18.788000 3.000000
35.192001 17.542000 3.000000
34.452000 16.333000 3.000000
35.130001 15.087000 3.000000
34.389999 13.877000 3.000000
35.068001 12.632000 3.000000
34.328999 11.422000 3.000000
35.007000 10.177000 3.000000
34.266998 8.967000 3.000000
34.945000 7.722000 3.000000
34.206001 6.512000 3.000000
34.882999 5.266000 3.000000
34.144001 4.056000 3.000000
34.821999 2.811000 3.000000
34.082001 1.601000 3.000000
34.759998 0.356000 3.000000
37.224998 42.058998 3.000000
37.903000 40.813999 3.000000
37.164001 39.604000 3.000000
37.841999 38.358002 3.000000
37.102001 37.148998 3.000000
37.779999 35.903000 3.000000
37.041000 34.693001 3.000000
37.719002 33.448002 3.000000
36.979000 32.237999 3.000000
37.657001 30.993000 3.000000
36.917000 29.783001 3.000000
37.595001 28.538000 3.000000
36.855999 27.327999 3.000000
37.534000 26.082001 3.000000
36.793999 24.872999 3.000000
37.472000 23.627001 3.000000
36.731999 22.417000 3.000000
37.410000 21.172001 3.000000
36.671002 19.962000 3.000000
37.348999 18.716999 3.000000
36.609001 17.507000 3.000000
37.286999 16.261000 3.000000
36.548000 15.052000 3.000000
37.224998 13.806000 3.000000
36.486000 12.596000 3.000000
37.164001 11.351000 3.000000
36.424000 10.141000 3.000000
37.102001 8.896000 3.000000
36.362999 7.686000 3.000000
37.041000 6.441000 3.000000
36.300999 5.231000 3.000000
36.979000 3.985000 3.000000
36.238998 2.775000 3.000000
36.917000 1.530000 3.000000
36.178001 0.320000 3.000000
40.061001 41.987999 3.000000
39.320999 40.778000 3.000000
39.999001 39.533001 3.000000
39.258999 38.323002 3.000000
39.937000 37.077000 3.000000
39.198002 35.868000 3.000000
39.876000 34.622002 3.000000
39.136002 33.411999 3.000000
39.813999 32.167000 3.000000
39.074001 30.957001 3.000000
39.751999 29.712000 3.000000
39.013000 28.502001 3.000000
39.691002 27.257000 3.000000
38.951000 26.047001 3.000000
39.629002 24.801001 3.000000
38.889999 23.591999 3.000000
39.567001 22.346001 3.000000
38.827999 21.136000 3.000000
39.506000 19.891001 3.000000
38.765999 18.681000 3.000000
39.444000 17.436001 3.000000
38.705002 16.226000 3.000000
39.382999 14.980000 3.000000
38.643002 13.771000 3.000000
39.320999 12.525000 3.000000
38.581001 11.315000 3.000000
39.258999 10.070000 3.000000
38.520001 8.860000 3.000000
39.198002 7.615000 3.000000
38.458000 6.405000 3.000000
39.136002 5.160000 3.000000
38.396000 3.950000 3.000000
39.074001 2.704000 3.000000
38.334999 1.494000 3.000000
39.013000 0.249000 3.000000
41.478001 41.952000 3.000000
42.155998 40.707001 3.000000
41.416000 39.497002 3.000000
42.094002 38.251999 3.000000
41.355000 37.042000 3.000000
42.033001 35.796002 3.000000
41.292999 34.587002 3.000000
41.971001 33.341000 3.000000
41.231999 32.131000 3.000000
41.909000 30.886000 3.000000
41.169998 29.676001 3.000000
41.848000 28.431000 3.000000
41.108002 27.221001 3.000000
41.785999 25.976000 3.000000
41.047001 24.766001 3.000000
41.724998 23.520000 3.000000
40.985001 22.311001 3.000000
41.662998 21.065001 3.000000
40.923000 19.855000 3.000000
41.601002 18.610001 3.000000
40.862000 17.400000 3.000000
41.540001 16.155001 3.000000
40.799999 14.945000 3.000000
41.478001 13.699000 3.000000
40.737999 12.490000 3.000000
41.416000 11.244000 3.000000
40.676998 10.034000 3.000000
41.355000 8.789000 3.000000
40.615002 7.579000 3.000000
41.292999 6.334000 3.000000
40.554001 5.124000 3.000000
41.231999 3.879000 3.000000
40.492001 2.669000 3.000000
41.169998 1.423000 3.000000
40.430000 0.213000 3.000000
44.313000 41.881001 3.000000
43.574001 40.671002 3.000000
44.250999 39.425999 3.000000
43.512001 38.216000 3.000000
44.189999 36.971001 3.000000
43.450001 35.761002 3.000000
44.127998 34.515999 3.000000
43.389000 33.306000 3.000000
44.067001 32.060001 3.000000
43.327000 30.850000 3.000000
44.005001 29.605000 3.000000
43.264999 28.395000 3.000000
43.943001 27.150000 3.000000
43.203999 25.940001 3.000000
43.882000 24.695000 3.000000
43.141998 23.485001 3.000000
43.820000 22.239000 3.000000
43.080002 21.030001 3.000000
43.757999 19.784000 3.000000
43.019001 18.573999 3.000000
43.696999 17.329000 3.000000
42.957001 16.119000 3.000000
43.634998 14.874000 3.000000
42.896000 13.664000 3.000000
43.574001 12.418000 3.000000
42.834000 11.209000 3.000000
43.512001 9.963000 3.000000
42.771999 8.753000 3.000000
43.450001 7.508000 3.000000
42.710999 6.298000 3.000000
43.389000 5.053000 3.000000
42.648998 3.843000 3.000000
43.327000 2.598000 3.000000
42.587002 1.388000 3.000000
43.264999 0.142000 3.000000
45.730999 41.846001 3.000000
46.409000 40.599998 3.000000
45.668999 39.389999 3.000000
46.347000 38.145001 3.000000
45.606999 36.935001 3.000000
46.285000 35.689999 3.000000
45.546002 34.480000 3.000000
46.223999 33.235001 3.000000
45.484001 32.025002 3.000000
46.161999 30.778999 3.000000
45.422001 29.569000 3.000000
46.099998 28.323999 3.000000
45.361000 27.114000 3.000000
46.039001 25.869000 3.000000
45.299000 24.659000 3.000000
45.977001 23.414000 3.000000
45.237999 22.204000 3.000000
45.916000 20.958000 3.000000
45.175999 19.749001 3.000000
45.854000 18.503000 3.000000
45.113998 17.292999 3.000000
45.792000 16.048000 3.000000
45.053001 14.838000 3.000000
45.730999 13.593000 3.000000
44.991001 12.383000 3.000000
45.668999 11.137000 3.000000
44.929001 9.928001 3.000000
45.606999 8.682000 3.000000
44.868000 7.472000 3.000000
45.546002 6.227000 3.000000
44.806000 5.017000 3.000000
45.484001 3.772000 3.000000
44.744999 2.562000 3.000000
45.422001 1.317000 3.000000
44.682999 0.107000 3.000000
48.566002 41.773998 3.000000
47.826000 40.564999 3.000000
48.504002 39.319000 3.000000
47.764000 38.109001 3.000000
48.442001 36.863998 3.000000
47.702999 35.653999 3.000000
48.381000 34.409000 3.000000
47.640999 33.199001 3.000000
48.319000 31.954001 3.000000
47.580002 30.744000 3.000000
48.257999 29.497999 3.000000
47.518002 28.288000 3.000000
48.195999 27.042999 3.000000
47.456001 25.833000 3.000000
48.133999 24.587999 3.000000
47.395001 23.378000 3.000000
48.073002 22.132999 3.000000
47.333000 20.923000 3.000000
48.011002 19.677000 3.000000
47.271000 18.468000 3.000000
47.949001 17.222000 3.000000
47.209999 16.011999 3.000000
47.888001 14.767000 3.000000
47.147999 13.557000 3.000000
47.826000 12.312000 3.000000
47.087002 11.102000 3.000000
47.764000 9.856000 3.000000
47.025002 8.647000 3.000000
47.702999 7.401000 3.000000
46.963001 6.191000 3.000000
47.640999 4.946000 3.000000
46.902000 3.736000 3.000000
47.580002 2.491000 3.000000
46.840000 1.281000 3.000000
47.518002 0.036000 3.000000
49.983452 41.738998 3.000000
50.661453 40.493000 3.000000
49.921452 39.284000 3.000000
50.599453 38.037998 3.000000
49.859451 36.827999 3.000000
50.537453 35.583000 3.000000
49.798451 34.373001 3.000000
50.476452 33.127998 3.000000
49.736450 31.917999 3.000000
50.414452 30.673000 3.000000
49.675453 29.462999 3.000000
50.353451 28.216999 3.000000
49.613453 27.007000 3.000000
50.291451 25.761999 3.000000
49.551453 24.552000 3.000000
50.229450 23.306999 3.000000
49.490452 22.097000 3.000000
50.168453 20.851999 3.000000
49.428452 19.642000 3.000000
50.106453 18.396000 3.000000
49.366451 17.187000 3.000000
50.044453 15.941000 3.000000
49.305450 14.731000 3.000000
49.983452 13.486000 3.000000
49.243450 12.276000 3.000000
49.921452 11.031000 3.000000
49.182453 9.821000 3.000000
49.859451 8.576000 3.000000
49.120453 7.366000 3.000000
49.798451 6.120000 3.000000
49.058453 4.910000 3.000000
49.736450 3.665000 3.000000
48.997452 2.455000 3.000000
52.818451 41.667999 3.000000
52.078453 40.458000 3.000000
52.756451 39.212002 3.000000
52.017452 38.002998 3.000000
52.695450 36.757000 3.000000
51.955452 35.547001 3.000000
52.633453 34.301998 3.000000
51.893452 33.091999 3.000000
52.571453 31.847000 3.000000
51.832451 30.636999 3.000000
52.510452 29.392000 3.000000
51.770451 28.181999 3.000000
52.448452 26.936001 3.000000
51.708450 25.726999 3.000000
52.386452 24.481001 3.000000
51.647453 23.271000 3.000000
52.325451 22.025999 3.000000
51.585453 20.816000 3.000000
52.263451 19.570999 3.000000
51.524452 18.361000 3.000000
52.201450 17.115000 3.000000
51.462452 15.906000 3.000000
52.140450 14.660000 3.000000
51.400452 13.450000 3.000000
52.078453 12.205000 3.000000
51.339451 10.995000 3.000000
52.017452 9.750000 3.000000
51.277451 8.540000 3.000000
51.955452 7.295000 3.000000
51.215450 6.085000 3.000000
54.235451 41.632000 3.000000
54.913452 40.387001 3.000000
54.174450 39.176998 3.000000
54.852451 37.931000 3.000000
54.112450 36.722000 3.000000
54.790451 35.476002 3.000000
54.050453 34.265999 3.000000
54.728451 33.021000 3.000000
53.989452 31.811001 3.000000
54.667450 30.566000 3.000000
53.927452 29.356001 3.000000
54.605454 28.111000 3.000000
53.866451 26.900999 3.000000
54.543449 25.655001 3.000000
53.804451 24.445999 3.000000
54.482452 23.200001 3.000000
53.742451 21.990000 3.000000
54.420452 20.745001 3.000000
53.681450 19.535000 3.000000
54.359451 18.290001 3.000000
53.619453 17.080000 3.000000
54.297451 15.834000 3.000000
53.557453 14.625000 3.000000
54.235451 13.379000 3.000000
53.496452 12.169000 3.000000
54.174450 10.924000 3.000000
53.434452 9.714000 3.000000
57.070450 41.561001 3.000000
56.331451 40.351002 3.000000
57.009453 39.105999 3.000000
56.269451 37.896000 3.000000
56.947453 36.650002 3.000000
56.208450 35.441002 3.000000
56.885452 34.195000 3.000000
56.146450 32.985001 3.000000
56.824452 31.740000 3.000000
56.084450 30.530001 3.000000
56.762451 29.285000 3.000000
56.023453 28.075001 3.000000
56.701450 26.830000 3.000000
55.961453 25.620001 3.000000
56.639450 24.374001 3.000000
55.899452 23.165001 3.000000
56.577454 21.919001 3.000000
55.838451 20.709000 3.000000
56.516453 19.464001 3.000000
55.776451 18.254000 3.000000
56.454453 17.009001 3.000000
55.714451 15.799000 3.000000
56.392452 14.553000 3.000000
55.653450 13.344000 3.000000
58.488453 41.525002 3.000000
59.166451 40.279999 3.000000
58.426453 39.070000 3.000000
59.104450 37.825001 3.000000
58.365452 36.615002 3.000000
59.043449 35.369000 3.000000
58.303452 34.160000 3.000000
58.981453 32.914002 3.000000
58.241451 31.704000 3.000000
58.919453 30.459000 3.000000
58.180450 29.249001 3.000000
58.858452 28.004000 3.000000
58.118450 26.794001 3.000000
58.796452 25.549000 3.000000
58.056450 24.339001 3.000000
58.734451 23.093000 3.000000
57.995453 21.884001 3.000000
58.673451 20.638001 3.000000
57.933453 19.427999 3.000000
58.611450 18.183001 3.000000
57.872452 16.973000 3.000000
61.323452 41.453999 3.000000
60.583450 40.244000 3.000000
61.261452 38.999001 3.000000
60.522453 37.789001 3.000000
61.200451 36.543999 3.000000
60.460449 35.334000 3.000000
61.138451 34.089001 3.000000
60.398453 32.879002 3.000000
61.076450 31.632999 3.000000
60.337452 30.423000 3.000000
61.015450 29.177999 3.000000
60.275452 27.968000 3.000000
60.953453 26.723000 3.000000
60.214451 25.513001 3.000000
60.892452 24.268000 3.000000
60.152451 23.058001 3.000000
60.830452 21.812000 3.000000
60.090450 20.603001 3.000000
62.740452 41.418999 3.000000
63.418449 40.173000 3.000000
62.679451 38.963001 3.000000
63.357452 37.717999 3.000000
62.617451 36.507999 3.000000
63.295452 35.263000 3.000000
62.556450 34.053001 3.000000
63.234451 32.807999 3.000000
62.494453 31.598000 3.000000
63.172451 30.351999 3.000000
62.432449 29.142000 3.000000
63.110451 27.896999 3.000000
62.371452 26.687000 3.000000
63.049454 25.442000 3.000000
62.309452 24.232000 3.000000
65.576454 41.347000 3.000000
64.836449 40.138000 3.000000
65.514450 38.891998 3.000000
64.774452 37.681999 3.000000
65.452454 36.437000 3.000000
64.713455 35.227001 3.000000
65.391449 33.981998 3.000000
64.651451 32.771999 3.000000
65.329453 31.527000 3.000000
64.589455 30.316999 3.000000
65.267456 29.070999 3.000000
64.528450 27.861000 3.000000
66.993454 41.312000 3.000000
67.671448 40.066002 3.000000
66.931450 38.856998 3.000000
67.609451 37.611000 3.000000
66.870453 36.401001 3.000000
67.548454 35.155998 3.000000
66.808449 33.945999 3.000000
67.486450 32.701000 3.000000
66.747452 31.490999 3.000000
69.828453 41.241001 3.000000
69.089447 40.030998 3.000000
69.766449 38.785000 3.000000
69.027451 37.576000 3.000000
69.705452 36.330002 3.000000
68.965454 35.119999 3.000000
71.246452 41.205002 3.000000
71.924454 39.959999 3.000000
71.184448 38.750000 3.000000
0.000000 0.000000 6.400000
2.773000 2.526000 6.400000
2.095000 1.281000 6.400000
2.835000 0.071000 6.400000
4.807000 6.263000 6.400000
4.129000 5.017000 6.400000
4.869000 3.807000 6.400000
4.191000 2.562000 6.400000
4.931000 1.352000 6.400000
4.253000 0.107000 6.400000
6.841000 9.999000 6.400000
6.163000 8.753000 6.400000
6.903000 7.544000 6.400000
6.225000 6.298000 6.400000
6.964000 5.088000 6.400000
6.286000 3.843000 6.400000
7.026000 2.633000 6.400000
6.348000 1.388000 6.400000
7.088000 0.178000 6.400000
8.875000 13.735000 6.400000
8.197000 12.490000 6.400000
8.937000 11.280000 6.400000
8.259000 10.034000 6.400000
8.998000 8.825000 6.400000
8.320000 7.579000 6.400000
9.060000 6.369000 6.400000
8.382000 5.124000 6.400000
9.121000 3.914000 6.400000
8.444000 2.669000 6.400000
9.183000 1.459000 6.400000
8.505000 0.213000 6.400000
10.909000 17.471001 6.400000
10.231000 16.226000 6.400000
10.970000 15.016000 6.400000
10.292000 13.771000 6.400000
11.032000 12.561000 6.400000
10.354000 11.315000 6.400000
11.094000 10.106000 6.400000
10.416000 8.860000 6.400000
11.155000 7.650000 6.400000
10.477000 6.405000 6.400000
11.217000 5.195000 6.400000
10.539000 3.950000 6.400000
11.279000 2.740000 6.400000
10.601000 1.494000 6.400000
11.340000 0.285000 6.400000
12.943000 21.207001 6.400000
12.265000 19.962000 6.400000
13.004000 18.752001 6.400000
12.326000 17.507000 6.400000
13.066000 16.297001 6.400000
12.387999 15.052000 6.400000
13.128000 13.842000 6.400000
12.450000 12.596000 6.400000
13.189000 11.387000 6.400000
12.511000 10.141000 6.400000
13.251000 8.931000 6.400000
12.573000 7.686000 6.400000
13.312000 6.476000 6.400000
12.634000 5.231000 6.400000
13.374000 4.021000 6.400000
12.696000 2.775000 6.400000
13.436000 1.566000 6.400000
12.758000 0.320000 6.400000
14.976000 24.944000 6.400000
14.299000 23.698000 6.400000
15.038000 22.488001 6.400000
14.360000 21.243000 6.400000
15.100000 20.033001 6.400000
14.422000 18.788000 6.400000
15.161000 17.577999 6.400000
14.483000 16.333000 6.400000
15.223000 15.123000 6.400000
14.545000 13.877000 6.400000
15.285000 12.668000 6.400000
14.607000 11.422000 6.400000
15.346000 10.212000 6.400000
14.668000 8.967000 6.400000
15.408000 7.757000 6.400000
14.730000 6.512000 6.400000
15.470000 5.302000 6.400000
14.792000 4.056000 6.400000
15.531000 2.847000 6.400000
14.853000 1.601000 6.400000
15.593000 0.391000 6.400000
17.010000 28.680000 6.400000
16.332001 27.434000 6.400000
17.072001 26.225000 6.400000
16.393999 24.979000 6.400000
17.134001 23.768999 6.400000
16.455999 22.524000 6.400000
17.195000 21.313999 6.400000
16.517000 20.069000 6.400000
17.257000 18.858999 6.400000
16.579000 17.614000 6.400000
17.318001 16.403999 6.400000
16.641001 15.158000 6.400000
17.379999 13.949000 6.400000
16.702000 12.703000 6.400000
17.442000 11.493000 6.400000
16.764000 10.248000 6.400000
17.503000 9.038000 6.400000
16.825001 7.793000 6.400000
17.565001 6.583000 6.400000
16.886999 5.337000 6.400000
17.627001 4.128000 6.400000
16.948999 2.882000 6.400000
17.688000 1.672000 6.400000
17.010000 0.427000 6.400000
19.044001 32.416000 6.400000
18.365999 31.171000 6.400000
19.106001 29.961000 6.400000
18.427999 28.715000 6.400000
19.167000 27.506000 6.400000
18.489000 26.260000 6.400000
19.229000 25.049999 6.400000
18.551001 23.805000 6.400000
19.291000 22.594999 6.400000
18.613001 21.350000 6.400000
19.351999 20.139999 6.400000
18.674000 18.895001 6.400000
19.414000 17.684999 6.400000
18.736000 16.438999 6.400000
19.476000 15.230000 6.400000
18.798000 13.984000 6.400000
19.537001 12.774000 6.400000
18.858999 11.529000 6.400000
19.599001 10.319000 6.400000
18.921000 9.074000 6.400000
19.660000 7.864000 6.400000
18.983000 6.618000 6.400000
19.722000 5.409000 6.400000
19.044001 4.163000 6.400000
19.784000 2.953000 6.400000
19.106001 1.708000 6.400000
19.844999 0.498000 6.400000
21.077999 36.152000 6.400000
20.400000 34.907002 6.400000
21.139999 33.696999 6.400000
20.462000 32.452000 6.400000
21.201000 31.242001 6.400000
20.523001 29.996000 6.400000
21.263001 28.787001 6.400000
20.584999 27.541000 6.400000
21.325001 26.330999 6.400000
20.646999 25.086000 6.400000
21.386000 23.876000 6.400000
20.708000 22.631000 6.400000
21.448000 21.421000 6.400000
20.770000 20.176001 6.400000
21.509001 18.966000 6.400000
20.830999 17.719999 6.400000
21.570999 16.511000 6.400000
20.893000 15.265000 6.400000
21.632999 14.055000 6.400000
20.955000 12.810000 6.400000
21.694000 11.600000 6.400000
21.016001 10.355000 6.400000
21.756000 9.145001 6.400000
21.077999 7.899000 6.400000
21.818001 6.690000 6.400000
21.139999 5.444000 6.400000
21.879000 4.234000 6.400000
21.201000 2.989000 6.400000
21.941000 1.779000 6.400000
21.263001 0.534000 6.400000
23.111999 39.889000 6.400000
22.434000 38.643002 6.400000
23.173000 37.432999 6.400000
22.496000 36.188000 6.400000
23.235001 34.978001 6.400000
22.556999 33.733002 6.400000
23.297001 32.522999 6.400000
22.619000 31.277000 6.400000
23.358000 30.068001 6.400000
22.680000 28.822001 6.400000
23.420000 27.611999 6.400000
22.742001 26.367001 6.400000
23.482000 25.157000 6.400000
22.804001 23.912001 6.400000
23.542999 22.702000 6.400000
22.865000 21.457001 6.400000
23.605000 20.247000 6.400000
22.927000 19.000999 6.400000
23.667000 17.791000 6.400000
22.989000 16.546000 6.400000
23.728001 15.336001 6.400000
23.049999 14.091000 6.400000
23.790001 12.881000 6.400000
23.111999 11.636000 6.400000
23.851000 10.426000 6.400000
23.173000 9.180000 6.400000
23.913000 7.971000 6.400000
23.235001 6.725000 6.400000
23.975000 5.515000 6.400000
23.297001 4.270000 6.400000
24.035999 3.060000 6.400000
23.358000 1.815000 6.400000
24.098000 0.605000 6.400000
25.207001 41.169998 6.400000
24.528999 39.924000 6.400000
25.268999 38.714001 6.400000
24.591000 37.469002 6.400000
25.330999 36.258999 6.400000
24.653000 35.014000 6.400000
25.392000 33.804001 6.400000
24.714001 32.557999 6.400000
25.454000 31.349001 6.400000
24.775999 30.103001 6.400000
25.514999 28.893000 6.400000
24.837999 27.648001 6.400000
25.577000 26.438000 6.400000
24.899000 25.193001 6.400000
25.639000 23.983000 6.400000
24.961000 22.738001 6.400000
25.700001 21.528000 6.400000
25.021999 20.282000 6.400000
25.761999 19.072001 6.400000
25.084000 17.827000 6.400000
25.823999 16.617001 6.400000
25.146000 15.372000 6.400000
25.885000 14.162000 6.400000
25.207001 12.917000 6.400000
25.947001 11.707000 6.400000
25.268999 10.461001 6.400000
26.009001 9.252000 6.400000
25.330999 8.006000 6.400000
26.070000 6.796000 6.400000
25.392000 5.551000 6.400000
26.132000 4.341000 6.400000
25.454000 3.096000 6.400000
26.193001 1.886000 6.400000
25.514999 0.640000 6.400000
26.625000 41.205002 6.400000
27.364000 39.994999 6.400000
26.686001 38.750000 6.400000
27.426001 37.540001 6.400000
26.747999 36.294998 6.400000
27.488001 35.084999 6.400000
26.809999 33.839001 6.400000
27.549000 32.630001 6.400000
26.871000 31.384001 6.400000
27.611000 30.174000 6.400000
26.933001 28.929001 6.400000
27.673000 27.719000 6.400000
26.995001 26.474001 6.400000
27.733999 25.264000 6.400000