POSCAR file written by OVITO
1
32.022213 -1.3663577e-05 6.7891732e-06
-2.3672624e-05 55.4716034 9.1931267e-06
2.332108e-06 1.8225876e-06 10.969533
Ty 
1352 
Cartesian
0.6631186 54.2128754 3.986878
0.5680151 51.7514534 3.9869524
0.4730525 49.2893448 3.9873334
0.3785988 46.8277855 3.9878722
0.2834807 44.3661919 3.9881826
0.1891007 41.9045526 3.9886134
0.0943669 39.4426651 3.9887298
-1.116836e-04 36.9806786 3.9886954
2.8423624 55.3615456 3.9870294
2.0839672 54.1588326 3.9868166
2.7470198 52.8997346 3.9869592
1.989184 51.6970253 3.9871354
2.6522002 50.4380837 3.9873188
1.894475 49.2350617 3.9869972
2.5571807 47.976452 3.9874396
1.7993849 46.7736588 3.9877152
2.4627204 45.5147324 3.9878972
1.7049854 44.3116074 3.9879854
2.3684638 43.0532074 3.98832
1.6103618 41.8502046 3.9884606
2.2734966 40.5917282 3.9885872
1.515611 39.3884392 3.9888318
2.179127 38.1300469 3.988762
1.4211519 36.926735 3.988981
2.0842757 35.6679802 3.9886776
1.3262134 34.4648094 3.9888048
1.989653 33.2064133 3.988652
1.2317087 32.0031815 3.9887198
1.8950516 30.7447529 3.98852
1.1369376 29.5413342 3.9884656
1.8001461 28.2831078 3.9883936
1.0418735 27.0796528 3.9884404
1.7051835 25.8211212 3.9883308
0.9473724 24.6179505 3.9884032
1.6105615 23.3592529 3.9885984
0.8523246 22.1560383 3.9884742
1.5153456 20.897421 3.988565
0.757829 19.6944123 3.9887298
1.4211793 18.4357701 3.9888818
0.6633314 17.2322502 3.9886836
1.3263416 15.9738884 3.988744
0.5686775 14.7707396 3.9886704
1.2319001 13.5122175 3.9884152
0.4743788 12.3090449 3.9883404
1.1375045 11.0503607 3.9880982
0.3797599 9.8473254 3.9879416
1.0426024 8.5882836 3.987675
0.2847999 7.3854766 3.987537
0.9480306 6.1265707 3.9872558
0.190069 4.9236814 3.98718
0.8530778 3.6648309 3.9870582
0.0948612 2.4621613 3.9867104
0.7579482 1.2031796 3.9868686
-4.902122e-05 3.8973476e-04 3.9868902
4.2631374 55.3073158 3.9870552
4.9262376 54.0485153 3.9872248
4.1683612 52.8455506 3.987031
4.8315673 51.5865708 3.987392
4.0735455 50.384121 3.9874264
4.7363663 49.1251259 3.9875658
3.9783914 47.9220468 3.9876232
4.6417384 46.6633606 3.9879576
3.8839236 45.4603577 3.9878802
4.5471645 44.2018509 3.9881992
3.7890482 42.9988862 3.9884374
4.4524951 41.7404557 3.988432
3.6947208 40.5372277 3.988446
4.3580213 39.2787514 3.9885786
3.6001942 38.0755806 3.9886776
4.2634635 36.8172875 3.9884436
3.5056496 35.6139984 3.9886988
4.1688743 34.3552666 3.9884558
3.4109044 33.152359 3.988531
4.0743523 31.8936462 3.9883366
3.3158069 30.6903153 3.9885114
3.9791656 29.4319248 3.9883526
3.2210419 28.2288475 3.9884496
3.8843706 26.9703466 3.9883088
3.1262097 25.7668858 3.988297
3.7892814 24.5082703 3.9883242
3.0313621 23.3051796 3.9884622
3.6945107 22.0464878 3.9884826
2.9368552 20.8432866 3.9884876
3.6000903 19.5844994 3.9886646
2.8422748 18.3815556 3.988487
3.5052235 17.1229057 3.9884722
2.7473898 15.9195948 3.9886826
3.4108009 14.6609965 3.9887122
2.6530898 13.4577189 3.988408
3.3159866 12.1989899 3.9881962
2.5583341 10.9961462 3.9882612
3.2215567 9.7373209 3.9879594
2.4640229 8.5343523 3.9877844
3.126976 7.2750697 3.9875674
2.3692229 6.0721483 3.9873848
3.0320709 4.8136039 3.987242
2.2742264 3.6105857 3.9871504
2.937239 2.3515585 3.9869784
2.1792278 1.1486996 3.9868716
7.1055794 55.196949 3.9872726
6.3473683 53.9938928 3.987359
7.0104799 52.7354164 3.9875432
6.2522445 51.5325127 3.9874736
6.9154372 50.2739563 3.9877862
6.1576562 49.0709152 3.987737
6.8209033 47.8119965 3.9880548
6.0629506 46.6090546 3.9880364
6.7260523 45.3507271 3.9882568
5.968207 44.1474991 3.9882048
6.631691 42.8889276 3.9885278
5.8738074 41.6858216 3.9883658
6.5372472 40.427517 3.9884782
5.7786708 39.2243157 3.9885378
6.4423528 37.9659082 3.988409
5.684712 36.7629013 3.9883554
6.3479004 35.504242 3.9882
5.5899978 34.3009606 3.9882666
6.2530594 33.0426216 3.9879902
5.4952126 31.8395406 3.9880826
6.1584616 30.5808907 3.9880186
5.400322 29.3778134 3.987955
6.0637441 28.1191521 3.9878712
5.3054738 26.916092 3.988066
5.9685212 25.6576824 3.988111
5.2102728 24.454443 3.9882474
5.8738132 23.1954784 3.9881826
5.1159616 21.9924718 3.9884064
5.7788005 20.7335377 3.9884768
5.0207934 19.5305748 3.9885848
5.6839104 18.2716999 3.9886104
4.9264842 17.0686741 3.9885936
5.589725 15.8096791 3.988474
4.8318053 14.6065188 3.9884374
5.4949198 13.3481856 3.9883228
4.7373042 12.1448374 3.9883386
5.4004684 10.8858738 3.9882406
4.6430021 9.6829529 3.9879894
5.3060331 8.4240017 3.987532
4.5480228 7.2212076 3.9876994
5.2109738 5.9620548 3.9875746
4.4533167 4.7593169 3.9873642
5.1162243 3.4999998 3.9872416
4.3583775 2.2969797 3.987212
5.0213585 1.0385727 3.9871274
8.5266104 55.1427841 3.9875848
9.1898165 53.8843994 3.98789
8.4315424 52.6810951 3.9876834
9.0948725 51.4224434 3.9876908
8.3368921 50.2194481 3.9878278
9.0003481 48.9610292 3.9881128
8.2419129 47.7580529 3.988109
8.9050914 46.4992028 3.9882112
8.1472158 45.2960854 3.9883228
8.810791 44.0378265 3.9883332
8.0528679 42.8343964 3.9883848
8.7159634 41.5763245 3.9884816
7.9580422 40.3730812 3.9883638
8.6216202 39.1147652 3.9884412
7.8637768 37.9116936 3.9884012
8.5271006 36.6530304 3.9882214
7.7690778 35.4500313 3.9881764
8.4321757 34.1915398 3.9879828
7.67413 32.988369 3.9878526
8.3374224 31.7296582 3.9876912
7.5794158 30.5266304 3.9877644
8.2425795 29.2679253 3.9875348
7.4843064 28.0648747 3.9876432
8.1473751 26.8062935 3.9876926
7.3894992 25.6032563 3.987691
8.052783 24.3444538 3.9876988
7.2950163 23.1412983 3.9879928
7.9578916 21.8828774 3.9881002
7.200069 20.6796837 3.988165
7.8629762 19.4204102 3.9882276
7.1054874 18.2173519 3.9884914
7.7687068 16.958559 3.9884678
7.0105686 15.7557259 3.9885148
7.6738253 14.4969168 3.9884416
6.9162222 13.2936888 3.9885574
7.5794816 12.034832 3.9883716
6.8216291 10.8315916 3.9883192
7.4846249 9.572979 3.9881824
6.7271075 8.369935 3.9880644
7.3900485 7.110919 3.9878574
6.632422 5.9078822 3.987732
7.2954326 4.6488071 3.9874182
6.5374737 3.4460945 3.9873978
7.2005467 2.1872153 3.9875586
6.4423266 0.9841116 3.9874242
11.3688784 55.0331459 3.988021
10.6107121 53.8298455 3.9879184
11.2740803 52.5714836 3.988153
10.5158654 51.3681564 3.9879844
11.1790209 50.1098023 3.9883332
10.4210949 48.9066658 3.9882012
11.0843945 47.6480751 3.988397
10.3266144 46.4449272 3.9882278
10.989954 45.1862793 3.9885266
10.2320252 43.9834786 3.9884298
10.8951894 42.7247849 3.988382
10.1371193 41.5216255 3.988281
10.8007956 40.2633858 3.9883592
10.042799 39.0601425 3.9882284
10.7059641 37.8018761 3.988236
9.9478006 36.5988198 3.9879826
10.6111994 35.3401451 3.98783
9.853468 34.1373062 3.9878404
10.5165577 32.8784562 3.9876624
9.7585821 31.6753884 3.987499
10.4215307 30.4168034 3.9875012
9.6636944 29.2139111 3.987372
10.3267346 27.954874 3.987296
9.5685301 26.7518845 3.9874226
10.2317886 25.4932213 3.9874118
9.4735098 24.2902107 3.9874474
10.1365376 23.0313816 3.9875752
9.3789501 21.8285256 3.9876728
10.042079 20.5695668 3.9877696
9.2843723 19.3666153 3.9880844
9.9469986 18.1076298 3.9881728
9.1895628 16.9045068 3.9883238
9.8527288 15.6457424 3.988418
9.0953474 14.4425869 3.9885426
9.7585001 13.1836948 3.9885808
9.0007105 11.9806824 3.9885628
9.663642 10.7220955 3.9883974
8.9057962 9.5188437 3.98857
9.569171 8.2598467 3.9883588
8.8113852 7.0568132 3.9882146
9.4741526 5.7980628 3.9880136
8.7162771 4.5949865 3.9879974
9.3793726 3.3360305 3.987848
8.6216021 2.132987 3.9877046
9.284873 0.8742294 3.9877226
12.7899943 54.9790498 3.9884382
13.4534359 53.7204895 3.9882792
12.6951504 52.5172196 3.9884168
13.3582554 51.2588768 3.988495
12.5999384 50.0554581 3.9884398
13.2635937 48.7969475 3.988675
12.5056973 47.5937348 3.9885932
13.1687136 46.3352738 3.988682
12.4107475 45.1321106 3.9885562
13.0740395 43.8735428 3.9886024
12.316474 42.6705666 3.9883498
12.9797678 41.4119415 3.988483
12.221798 40.2087135 3.9883932
12.8851272 38.9505806 3.9880982
12.1272001 37.7475357 3.9878848
12.7905283 36.4889717 3.987695
12.0325394 35.2859116 3.9876188
12.6959114 34.0270271 3.9874196
11.9376488 32.8244782 3.9874302
12.6006317 31.5654736 3.9871508
11.8426 30.3626995 3.9870892
12.5057163 29.1035538 3.9870862
11.747818 27.9006042 3.9870374
12.4107456 26.6418762 3.9871002
11.6525193 25.4390888 3.98721
12.3156958 24.1802063 3.9873424
11.5577889 22.9772302 3.9873324
12.2210007 21.718174 3.9875704
11.4633227 20.5153466 3.9876648
12.1259794 19.2564755 3.9879712
11.36831 18.0534782 3.9879584
12.0314808 16.7942429 3.988149
11.2739506 15.5914507 3.9884238
11.9368506 14.3326311 3.9884934
11.1792374 13.1294804 3.9884978
11.8424616 11.8707666 3.988608
11.0848694 10.667655 3.9886448
11.7479477 9.4090023 3.988492
10.9902078 8.2057676 3.988657
11.6532679 6.9472098 3.9884194
10.8955536 5.7439862 3.9884912
11.55863 4.4851108 3.988385
10.8008013 3.2819073 3.9882792
11.4639073 2.0232654 3.9880422
10.7056427 0.8202415 3.9880642
15.632123 54.8694726 3.988504
14.8739024 53.6664009 3.9884544
15.5371809 52.4078636 3.9885386
14.7793045 51.2045479 3.988642
15.4427414 49.9462128 3.9887214
14.6846047 48.7428284 3.9886556
15.3476877 47.4844361 3.9889238
14.5900402 46.2812348 3.98887
15.2532539 45.0226173 3.9887576
14.4956332 43.8193131 3.9887254
15.1587467 42.5606652 3.9885348
14.4006081 41.3576203 3.988378
15.0641489 40.0990753 3.988371
14.3063212 38.896061 3.9880164
14.9695206 37.6373024 3.9879572
14.2117014 36.4340554 3.9877746
14.8747492 35.1756134 3.9874322
14.1167603 33.9728242 3.9870512
14.7799187 32.7140122 3.9871252
14.0220633 31.5112973 3.9871174
14.6851359 30.251854 3.9868818
13.9269962 29.0491962 3.9867544
14.5899716 27.7905064 3.9867964
13.8317623 26.5877209 3.9868468
14.4950638 25.3286572 3.9870812
13.7369442 24.1257439 3.9870856
14.3999329 22.8669988 3.9873472
13.6416283 21.6643143 3.987362
14.3048401 20.4051228 3.9876982
13.5473843 19.2022762 3.9877146
14.2103567 17.9432374 3.9880888
13.4527283 16.7402115 3.9882558
14.1154585 15.4815665 3.9883702
13.3580856 14.2784157 3.9884312
14.0214081 13.0194778 3.9885404
13.2637749 11.8163033 3.9888116
13.9268456 10.5578394 3.9886606
13.1687517 9.3547344 3.9885926
13.8320914 8.0962257 3.9885898
13.0743494 6.8929968 3.9886398
13.7375632 5.6341558 3.9884616
12.9798422 4.4311867 3.988561
13.6427927 3.1725268 3.9884504
12.8847466 1.969336 3.9883216
13.547885 0.7105599 3.988341
17.0530624 54.8154717 3.9884486
17.7163391 53.5568199 3.9883416
16.9583646 52.3534622 3.9884102
17.6217175 51.095005 3.988596
16.863348 49.8918686 3.988483
17.5265408 48.6335068 3.9885612
16.7688446 47.4302979 3.9887364
17.4321804 46.1715393 3.988891
16.6745587 44.9683686 3.9886882
17.3373413 43.7095986 3.9887364
16.579773 42.5065613 3.9886764
17.2429447 41.2479248 3.9884192
16.4855042 40.044857 3.988349
17.1487064 38.7859879 3.988093
16.39077 37.5828705 3.987934
17.0538235 36.3243141 3.9876826
16.2958565 35.1212997 3.9875568
16.9591198 33.8623276 3.9872684
16.201149 32.6594658 3.9871868
16.8641224 31.4005852 3.987075
16.1061192 30.1980343 3.9867092
16.7689152 28.9386272 3.9868748
16.0111485 27.7362099 3.9868966
16.6743145 26.4769497 3.9868662
15.9162198 25.2741604 3.9866794
16.579197 24.0156116 3.9869502
15.821086 22.8127213 3.9870904
16.4842968 21.553793 3.9873262
15.726327 20.350914 3.987449
16.3895893 19.0920734 3.9878728
15.6314068 17.8893128 3.9879092
16.2945309 16.6304169 3.9881926
15.5369807 15.4272433 3.9883688
16.2001267 14.1684408 3.9885994
15.4424353 12.9653512 3.9887646
16.1055794 11.7068844 3.9887496
15.3477669 10.5035181 3.988801
16.0111122 9.2449274 3.9886892
15.2533159 8.041687 3.9888692
15.916604 6.7832194 3.988694
15.1586514 5.5801053 3.988566
15.8218384 4.3217764 3.9884978
15.0637531 3.1184938 3.9885214
15.7269907 1.8595866 3.9883534
14.968955 0.6562518 3.9884094
19.8953324 54.7058792 3.9883126
19.1374416 53.5025749 3.9883068
19.8005142 52.2439766 3.988345
19.0423183 51.0407257 3.9884802
19.7056866 49.7822685 3.9884702
18.9478932 48.5790558 3.9884974
19.6112595 47.3203964 3.988675
18.8533402 46.1173287 3.9884952
19.516222 44.8588868 3.9884838
18.7585545 43.655632 3.9886816
19.4217778 42.3965607 3.988719
18.6642018 41.1934547 3.9884058
19.3271008 39.934803 3.988202
18.5694485 38.731968 3.9882816
19.2327061 37.4730683 3.9879518
18.4749909 36.2698898 3.9877906
19.1381474 35.011116 3.9875816
18.380209 33.8081436 3.9874134
19.0431442 32.5493622 3.9872518
18.2854366 31.3464813 3.9871584
18.9482766 30.0872803 3.9869646
18.1903973 28.8844414 3.9868678
18.8533554 27.6254788 3.9870268
18.0952206 26.4229336 3.9868144
18.7582722 25.1638374 3.9869584
18.0001793 23.9609528 3.9871338
18.6633511 22.7021961 3.9873118
17.9055272 21.4992848 3.9869934
18.5684414 20.2408962 3.9874478
17.810442 19.0379276 3.987726
18.4737492 17.7788944 3.9878974
17.7162438 16.5761242 3.9879842
18.3794556 15.3173304 3.9883092
17.6214981 14.1144171 3.988468
18.2845612 12.8558426 3.9885844
17.5267506 11.6526261 3.9888344
18.1903477 10.3940716 3.9887736
17.4322167 9.1906433 3.9889844
18.0954742 7.932445 3.9886764
17.3372765 6.729146 3.9887912
18.0007553 5.4705892 3.9886502
17.2428208 4.2674637 3.9886966
17.9061624 3.0089111 3.9885174
17.1481648 1.8055901 3.9884542
17.8111305 0.5469809 3.9883834
21.316639 54.6518555 3.9880718
21.9795208 53.3932037 3.9881182
21.2214413 52.1901589 3.9882542
21.8850118 50.9313164 3.9881886
21.1269264 49.7279549 3.9884086
21.7900372 48.46941 3.988489
21.0318451 47.2663384 3.9885846
21.6950207 46.0074883 3.988619
20.9375496 44.804451 3.9885836
21.6007366 43.5455284 3.9884664
20.8430272 42.3425751 3.9884542
21.5059262 41.0837212 3.9883286
20.7485047 39.8804398 3.988355
21.4115887 38.6216698 3.9882364
20.6540547 37.4186478 3.9879868
21.317133 36.1598282 3.9875398
20.5589695 34.9569664 3.9877132
21.2221985 33.6981926 3.9875844
20.4643173 32.495102 3.9873828
21.1272526 31.2358875 3.9872688
20.3695812 30.033062 3.987219
21.0323849 28.7743817 3.987134
20.2743244 27.5714798 3.987053
20.937256 26.3124294 3.9872222
20.179554 25.1096439 3.987053
20.842764 23.850769 3.9874022
20.0845032 22.6479817 3.9874558
20.7476101 21.3893852 3.9875756
19.9894962 20.1861992 3.9876262
20.6529141 18.9276448 3.9879576
19.8950214 17.724514 3.9878802
20.5581589 16.4662285 3.9881992
19.8002281 15.2633038 3.9884396
20.4634762 14.0043783 3.9884406
19.7058792 12.8013363 3.9884396
20.3691387 11.5429297 3.9885664
19.6113186 10.3397665 3.9886776
20.2746353 9.0815134 3.988436
19.5166455 7.878101 3.9887028
20.1801148 6.6197915 3.9884586
19.4219189 5.4164968 3.9885306
20.0854015 4.1579108 3.9883386
19.3270073 2.9547692 3.9885002
19.9902306 1.6961587 3.9883548
19.2322235 0.49299 3.9884522
24.1584187 54.5421448 3.9877002
23.4006539 53.3391075 3.9877008
24.0638104 52.0801468 3.9877056
23.3061428 50.8771172 3.987991
23.9690838 49.6184731 3.9881068
23.2110825 48.415226 3.9881636
23.8741914 47.1564636 3.9882358
23.1164913 45.9531976 3.9885062
23.7797699 44.6943321 3.9884732
23.0216866 43.4915085 3.9885194
23.6848679 42.2326546 3.988449
22.9274674 41.029583 3.9885504
23.5904427 39.7702866 3.9883664
22.8328343 38.5673981 3.988343
23.4957752 37.3086548 3.9881862
22.7381077 36.1054459 3.9880792
23.4012051 34.8466874 3.9878874
22.6434403 33.6437035 3.9877418
23.3066673 32.3848763 3.9874296
22.5484352 31.1820107 3.9874156
23.2114716 29.9231548 3.9875344
22.4535427 28.7201691 3.98743
23.1166134 27.4611759 3.987269
22.3585396 26.2581387 3.9873558
23.0215302 24.9994966 3.987541
22.2633743 23.7967301 3.9874738
22.9266434 22.5379696 3.9877838
22.1686859 21.3348675 3.9877408
22.8321476 20.0764446 3.9880562
22.0740337 18.8732872 3.9880374
22.7371369 17.6148949 3.988262
21.979313 16.4116459 3.9882108
22.6427784 15.1531439 3.9885278
21.8850232 13.9502622 3.9883616
22.5482655 12.6914521 3.9884668
21.7898712 11.4883099 3.9885424
22.4534893 10.2301121 3.988408
21.695755 9.0269814 3.9883542
22.3590698 7.7684827 3.988204
21.6010208 6.5651932 3.9882754
22.2643013 5.3070812 3.9880048
21.5062008 4.1038585 3.9881018
22.1694737 2.8452204 3.9880316
21.4115563 1.6422478 3.9879416
22.0747738 0.3834202 3.9878706
25.5797577 54.4880257 3.987431
26.2427578 53.2289581 3.9874092
25.4846592 52.0260658 3.9874434
26.1476498 50.7672005 3.9875822
25.3900604 49.5643502 3.9876826
26.0532169 48.3053284 3.9877892
25.2953491 47.1021614 3.9880924
25.9581718 45.8436776 3.9881822
25.2005577 44.6404953 3.9883088
25.8637944 43.3815155 3.9884274
25.1065178 42.1785011 3.9885648
25.7695389 40.9194412 3.988582
25.0118885 39.7164269 3.9885796
25.6745987 38.4576302 3.9884048
24.9170228 37.2545548 3.988566
25.5804158 35.9955292 3.9883524
24.8223725 34.7923508 3.9882406
25.4853325 33.5338173 3.9880322
24.7273083 32.3308106 3.98802
25.3905888 31.0720749 3.9878684
24.6326008 29.8688622 3.9877098
25.2958641 28.6099873 3.987737
24.5378609 27.4073238 3.987581
25.2008057 26.1485138 3.9878976
24.4427033 24.9453316 3.9876808
25.1059952 23.6866474 3.9877098
24.3479996 22.4836521 3.9878068
25.0114765 21.225153 3.988124
24.2529144 20.0219975 3.9881192
24.916275 18.7636471 3.9882196
24.1582203 17.560442 3.9882976
24.821888 16.3020001 3.9883282
24.0640488 15.0986691 3.9883738
24.7270699 13.8404732 3.988494
23.9692726 12.6373329 3.9883842
24.6325932 11.3786287 3.9884536
23.874981 10.1758967 3.9884274
24.5383015 8.9171066 3.9882232
23.7800923 7.7139354 3.9881772
24.4433708 6.4556823 3.9879862
23.6851731 5.2526078 3.9878596
24.3486557 3.9941126 3.9876914
23.5903969 2.7909282 3.9877652
24.2535534 1.5322252 3.9875278
23.4955406 0.3293276 3.9876424
28.4217797 54.3778381 3.987116
27.6637039 53.1751442 3.9872184
28.3267212 51.9157144 3.9873546
27.5689965 50.7128601 3.987345
28.2321224 49.453991 3.9875756
27.4743672 48.2510758 3.987681
28.1370773 46.9923516 3.9879704
27.3792858 45.7892304 3.9879764
28.042717 44.5303841 3.9881514
27.2849522 43.3272438 3.9884212
27.9478646 42.0685158 3.9884966
27.1904259 40.8655548 3.9885032
27.8534814 39.6066094 3.9886024
27.0960197 38.4034081 3.9886662
27.758934 37.1445351 3.9885024
27.0014362 35.9414712 3.988665
27.6645108 34.68293 3.9884264
26.9065208 33.479538 3.9885018
27.5697956 32.2208595 3.988402
26.811842 31.017662 3.9882914
27.4750767 29.7591629 3.988058
26.7167111 28.5560208 3.9880722
27.3798847 27.2975388 3.9880168
26.6219025 26.0943184 3.9879278
27.2851162 24.8354016 3.9881524
26.5270863 23.6321621 3.9879982
27.1901569 22.3739891 3.9883318
26.4321518 21.1707573 3.9881974
27.0954857 19.9122964 3.9883958
26.3376103 18.7090435 3.9882312
27.0011978 17.4507809 3.9885314
26.2430496 16.2476368 3.9884286
26.906229 14.9890538 3.988386
26.1483288 13.7861033 3.9882718
26.8118439 12.5276003 3.9883572
26.053978 11.3242788 3.9882274
26.7169628 10.0657997 3.9882344
25.9590588 8.862919 3.9879832
26.6224556 7.6042457 3.9878278
25.8644486 6.4012385 3.987831
26.5277596 5.1426086 3.9876534
25.7696285 3.9396046 3.9874976
26.4327221 2.6812749 3.9874976
25.6747132 1.4781938 3.9873602
26.3377552 0.2190328 3.9872956
29.8428574 54.323597 3.9868568
30.5061531 53.0644112 3.987094
29.7481652 51.8616066 3.9870944
30.4108868 50.6024666 3.987335
29.6528206 49.4001122 3.987345
30.316021 48.1408043 3.9877174
29.5583687 46.9377708 3.9877208
30.2215157 45.6790009 3.9880834
29.4637547 44.4760361 3.988252
30.1266747 43.2176323 3.9883804
29.3690415 42.014328 3.9884558
30.0323792 40.7554398 3.9885292
29.2749863 39.5523796 3.9888176
29.9378816 38.2936707 3.9886778
29.1798878 37.0904884 3.988612
29.843094 35.8317681 3.988598
29.0855427 34.6287194 3.9886242
29.748766 33.3699989 3.9884664
28.9908142 32.1666718 3.9885796
29.6540222 30.9084206 3.9884598
28.8958036 29.705101 3.9883366
29.5589657 28.4463425 3.9883506
28.8010979 27.2432308 3.9884238
29.4644871 25.9846344 3.988279
28.706398 24.7814846 3.9884062
29.3692303 23.5227127 3.9884952
28.6111527 22.3196793 3.98844
29.2747955 21.0610542 3.9886756
28.5167218 19.8576432 3.9885912
29.1799011 18.5994377 3.988685
28.421772 17.3963337 3.9885634
29.085268 16.1379967 3.9885962
28.3274365 14.9348498 3.9883474
28.9907436 13.6762181 3.9884918
28.2330284 12.4731617 3.9883912
28.8961774 11.2147884 3.9880844
28.1383839 10.0116844 3.9878818
28.8015671 8.7528763 3.9876932
28.0437241 7.550014 3.987615
28.7071285 6.2912293 3.9874178
27.9486238 5.0883331 3.9874144
28.6118641 3.8297155 3.9871462
27.8537046 2.626854 3.9870854
28.5168476 1.3678361 3.9870952
27.7589169 0.1647954 3.9870378
31.927414 53.0102501 3.9866874
31.8322563 50.5484963 3.9870982
31.7375565 48.086586 3.9874554
31.6423645 45.6248589 3.987922
31.5480042 43.1630745 3.988376
31.4534626 40.701252 3.988763
31.3589916 38.2396584 3.9888072
31.2643986 35.7775269 3.9888848
31.927681 34.5189286 3.9887026
31.1697693 33.3159027 3.988576
31.8330326 32.0573883 3.9884896
31.0747662 30.8539982 3.9885366
31.738163 29.5956459 3.9883638
30.979952 28.3922043 3.9884164
31.6432076 27.1336594 3.9885024
30.8850804 25.9307118 3.9884578
31.5482216 24.6720467 3.9885398
30.7904969 23.4686985 3.9886482
31.4537392 22.2101421 3.9887092
30.6958657 21.0069103 3.9886642
31.3589478 19.7485218 3.9889248
30.6010437 18.5451565 3.9888636
31.2644482 17.2867851 3.9887648
30.506691 16.0835342 3.9887204
31.1699524 14.8251362 3.988535
30.4116459 13.6218825 3.9883758
31.0751648 12.3632231 3.988364
30.317564 11.1605845 3.9880136
30.9805508 9.9014206 3.9879622
30.2228012 8.6982365 3.9877706
30.885811 7.4396997 3.987429
30.1279011 6.2370167 3.9870564
30.7911434 4.9780254 3.9871384
30.033102 3.7752159 3.9871182
30.6963272 2.5163129 3.9868908
29.9380456 1.3135468 3.986754
30.6010666 0.0546947 3.9867972
-1.0357858e-04 18.4908962 7.3797522
0.0943783 16.0289097 7.3796601
0.1890672 13.5670662 7.3798924
0.2835661 11.1054564 7.3802252
0.3786188 8.6438227 7.3806362
0.4730696 6.1822357 7.3810854
0.5680211 3.7201355 7.3815508
0.6630913 1.2587092 7.3815775
-6.7179041e-05 -3.7973337e-04 7.3816748
0.7579172 54.2684975 7.3816295
0.0948112 53.0095482 7.3817268
0.8529984 51.8068161 7.3814907
0.1900815 50.5479317 7.3812866
0.9480428 49.3450241 7.3811259
0.2847794 48.0860748 7.3808694
1.0425917 46.8831712 7.3807473
0.3798169 45.6241837 7.380507
1.137517 44.4214516 7.3803401
0.4743218 43.1625252 7.3801222
1.2319009 41.9593278 7.380013
0.5686816 40.7008362 7.3798051
1.3263688 39.4977227 7.3797069
0.6633035 38.2393341 7.3797751
1.4211688 37.0358276 7.3795715
0.7578156 35.7771683 7.3797627
1.5154056 34.574173 7.3797927
0.8523582 33.3155823 7.3799
1.6105455 32.11232 7.3798609
0.9473602 30.8536396 7.3800893
1.7051746 29.6505203 7.3801279
1.0418959 28.3919487 7.3798947
1.8001504 27.188488 7.3799825
1.1368922 25.930315 7.3799548
1.895087 24.7269383 7.3799334
1.2317001 23.4683895 7.3797274
1.9896382 22.2652035 7.3798199
1.3262059 21.0066986 7.3797021
2.0842402 19.8035641 7.3797078
1.4211935 18.5448647 7.3795533
2.1791554 17.3415394 7.3796287
1.515599 16.0831757 7.3796635
2.2734866 14.8798886 7.3798647
1.6103121 13.6214342 7.3799615
2.3684485 12.4183941 7.3800569
1.7050209 11.1599789 7.3804846
2.4627896 9.956912 7.3805499
1.7994238 8.6980038 7.3806687
2.5571521 7.4951873 7.3809528
1.8944944 6.2364726 7.3813753
2.6522486 5.033535 7.3811107
1.989203 3.7745657 7.3813315
2.7469783 2.5718324 7.3814125
2.0839107 1.3127409 7.3815847
2.842408 0.1100605 7.3814836
2.1791751 54.3229447 7.3815889
2.9371568 53.1200676 7.3814449
2.2742193 51.8610002 7.3813124
3.0320594 50.6580315 7.3811493
2.3692374 49.399456 7.3809152
3.1270022 48.1966057 7.3807745
2.4639709 46.9372712 7.3806715
3.2215247 45.7341881 7.3805714
2.5583616 44.4754372 7.3802791
3.3160596 43.2724991 7.3802042
2.653158 42.0138779 7.3799572
3.4108663 40.8106232 7.3798304
2.7474032 39.5520325 7.3797703
3.5052252 38.3487778 7.3799839
2.842335 37.0900841 7.3798666
3.6000996 35.8871232 7.3797784
2.9368832 34.6283646 7.3799491
3.6944816 33.425129 7.3799453
3.031296 32.1664085 7.3799319
3.789311 30.9633504 7.3801022
3.1261809 29.7047215 7.3800845
3.8843864 28.5012379 7.380127
3.2210214 27.2427769 7.3799887
3.9791678 26.0396156 7.3801103
3.3158059 24.781126 7.3799887
4.0743384 23.5778351 7.3801384
3.4109311 22.3194275 7.3798909
4.1689091 21.1161766 7.3799791
3.5056334 19.8573818 7.3798499
4.2635408 18.6542092 7.3799415
3.6002414 17.3960247 7.379808
4.3580594 16.192873 7.3799114
3.6947096 14.9344426 7.3800254
4.4525099 13.7312308 7.3800502
3.7890237 12.4728127 7.3800464
4.5471192 11.2698269 7.3802223
3.883945 10.0112848 7.3804965
4.6417642 8.80824 7.3805003
3.9783516 7.5495801 7.3807564
4.7363792 6.3463969 7.3808556
4.0735073 5.0876017 7.3810172
4.8314677 3.8849634 7.3810206
4.1682472 2.6261111 7.3812814
4.9262572 1.4231715 7.3812199
4.2632365 0.1643094 7.3814011
5.0213113 54.4330368 7.3813529
4.3583307 53.1746254 7.3812542
5.1162481 51.9715806 7.3811998
4.4533124 50.7122612 7.3809462
5.2110067 49.5095749 7.380856
4.548049 48.2504311 7.380713
5.3060126 47.0475502 7.3808556
4.6429324 45.7886315 7.3804622
5.4004583 44.5857048 7.3802481
4.7373257 43.3267326 7.3801437
5.4949193 42.1234245 7.3801489
4.8318711 40.865139 7.3799825
5.589756 39.6619683 7.3799682
4.9264508 38.4029694 7.3798938
5.6838465 37.1999321 7.3799276
5.0208406 35.941021 7.3798256
5.7788148 34.7380066 7.3799839
5.1159253 33.4792099 7.3800941
5.8737546 32.2760315 7.3802233
5.2102637 31.0172081 7.3802304
5.9686142 29.8139649 7.3803349
5.3054876 28.5555287 7.3802767
6.0636988 27.3524876 7.3805781
5.4002905 26.0939198 7.3803163
6.1583757 24.8907662 7.380353
5.4951639 23.6319809 7.3802548
6.2530279 22.4290715 7.3804145
5.5899873 21.1705322 7.3801379
6.3478503 19.967312 7.380187
5.6846681 18.7086621 7.3800111
6.4423547 17.5056439 7.3799772
5.7787071 16.247242 7.3797951
6.5372572 15.044095 7.3799796
5.8738408 13.785842 7.379951
6.6316877 12.5825978 7.3798618
5.968237 11.3240547 7.3802657
6.7260881 10.1208115 7.3801332
6.0630116 8.862383 7.3804288
6.8209334 7.6593972 7.3804093
6.1576943 6.4006152 7.3807674
6.9154402 5.1978712 7.3807502
6.2521858 3.9389796 7.3810334
7.0105209 2.7359844 7.3808994
6.3474217 1.4775564 7.3811207
7.1056471 0.274611 7.3811507
6.4422989 54.4875069 7.3810105
7.2004886 53.2844429 7.3809314
6.5374589 52.0255623 7.3809409
7.2954097 50.8228836 7.3809433
6.6324702 49.5637703 7.3807421
7.3900776 48.3606987 7.380548
6.7270823 47.1017036 7.3803663
7.4845615 45.8987084 7.3802338
6.8216267 44.6400948 7.3800559
7.5794478 43.4368668 7.3800621
6.9161836 42.177948 7.3798552
7.6738253 40.9747582 7.3799396
7.0106206 39.7159081 7.3799162
7.7687111 38.5130043 7.379983
7.1054597 37.254139 7.3800955
7.862927 36.0509949 7.3802147
7.2000842 34.791771 7.3803039
7.9578018 33.5889092 7.3803759
7.29494 32.3301468 7.3804979
8.0527916 31.1269493 7.3807964
7.3895593 29.8682042 7.3807454
8.1473932 28.6652184 7.380784
7.4842429 27.4066544 7.3807593
8.2425385 26.2037201 7.3808198
7.5794406 24.945017 7.3805752
8.3374605 23.7419663 7.3807378
7.6741333 22.483244 7.3804979
8.4321537 21.2800617 7.3804574
7.7690225 20.0215416 7.3803058
8.5270586 18.8186054 7.3803663
7.863718 17.5599156 7.3800197
8.6216259 16.3568382 7.3799648
7.9580588 15.0985622 7.380064
8.7159109 13.8953228 7.3798452
8.0528545 12.6371899 7.3800511
8.8108387 11.4338074 7.379941
8.1473055 10.1755133 7.3801131
8.9051352 8.972395 7.3801737
8.2419186 7.7135372 7.3803563
9.0003414 6.5104885 7.3803339
8.3369131 5.2521429 7.3805328
9.0948591 4.049006 7.3806329
8.4315977 2.7904525 7.3806682
9.1898794 1.5872121 7.3805771
8.5266838 0.3288845 7.3808375
9.2848501 54.5974236 7.3807373
8.6215525 53.338665 7.380764
9.3793345 52.1355934 7.3805924
8.7162571 50.8766594 7.3804965
9.4741621 49.6735649 7.380393
8.8113785 48.4148789 7.3802509
9.5691757 47.211853 7.3800883
8.9057798 45.9528198 7.3800392
9.6636544 44.7495804 7.3800106
9.0006399 43.4909668 7.3798623
9.7584267 42.2879295 7.3798709
9.0953445 41.0290146 7.3798709
9.8526802 39.8258744 7.380003
9.1895447 38.5670738 7.3800793
9.9470454 37.3640022 7.3802414
9.2843084 36.1049843 7.3803826
10.0419426 34.9018822 7.3806605
9.378829 33.6430397 7.3807554
10.1365204 32.4401322 7.380847
9.4735337 31.1813736 7.3809281
10.2317772 29.978428 7.3810411
9.5685292 28.7197247 7.3810229
10.3266878 27.5167904 7.3811298
9.6636639 26.25774 7.3811045
10.4214878 25.0548363 7.3809943
9.7586155 23.7962418 7.3810253
10.5165777 22.593134 7.3808904
9.8534852 21.334261 7.3806539
10.6112185 20.1314049 7.3806696
9.9477558 18.8727894 7.3804979
10.7060013 17.669775 7.3803887
10.0427933 16.4114895 7.3802805
10.8008414 15.2082129 7.3801012
10.137064 13.9499788 7.3800249
10.8951616 12.7467861 7.3800612
10.2320118 11.4882031 7.3798876
10.989935 10.2854223 7.3798733
10.3266363 9.0267258 7.3801341
11.0843773 7.8235536 7.3800511
10.4210463 6.5649724 7.3802576
11.1790333 5.3618531 7.3800998
10.5159273 4.1035156 7.3803611
11.2741261 2.9001418 7.3802667
10.6107693 1.6417146 7.3803816
11.3688421 0.4384222 7.3803587
10.7056093 54.6513481 7.3802824
11.4639149 53.4483185 7.3803125
10.8007374 52.1896439 7.3801465
11.5586167 50.9864846 7.3800283
10.895527 49.7276306 7.3800473
11.6532269 48.5244522 7.3799973
10.9901752 47.2658692 7.3797808
11.7479286 46.062645 7.3799796
11.0849056 44.803917 7.3797994
11.8424168 43.6007729 7.3798437
11.1791935 42.3420525 7.3798995
11.9368716 41.1390076 7.3799791
11.2739439 39.880211 7.3800755
12.0314236 38.6773758 7.3803043
11.3682833 37.4181442 7.3804979
12.1259279 36.2151184 7.380528
11.4631434 34.956215 7.3807387
12.2210064 33.75346 7.3808422
11.5578366 32.4944191 7.3810587
12.3157511 31.2914143 7.3811975
11.652566 30.0324917 7.3812418
12.4107857 28.8297081 7.3814058
11.7477579 27.5709744 7.3814101
12.5056706 26.3680706 7.3813295
11.8426342 25.1088486 7.3812466
12.6006203 23.906105 7.3812976
11.9376612 22.6471329 7.3810592
12.6959133 21.4445935 7.3810964
12.0325861 20.1856785 7.3807836
12.7905827 18.9826394 7.3807664
12.1272659 17.7241097 7.3804865
12.8851814 16.521061 7.3803673
12.2218609 15.2628975 7.3800817
12.9797498 14.0596848 7.3798895
12.3164692 12.8010102 7.3800922
13.0740614 11.5980358 7.3797965
12.410717 10.3395023 7.3799191
13.1687231 9.1362991 7.3797813
12.5057068 7.8778926 7.3799505
13.2636128 6.6746464 7.3798409
12.5999289 5.4161587 7.3800068
13.3583374 4.2127686 7.3799396
12.6952009 2.9544364 7.3800349
13.4534636 1.7510757 7.380116
12.7900067 0.4925101 7.380002
13.5479222 54.7609864 7.3800607
12.88476 53.5022774 7.3800492
13.6428204 52.2990837 7.3799582
12.979911 51.0404053 7.3798957
13.7375517 49.8374253 7.3799415
13.0743313 48.578598 7.3798213
13.8321038 47.3753128 7.3798256