POSCAR file written by OVITO
1
31.9799996 0.0 0.0
0.0 55.3909836 0.0
0.0 0.0 11.0
Type_1 
1352 
Cartesian
0.662 54.1349983 4.0
0.568 51.6759987 4.0
0.473 49.2179985 4.0
0.378 46.7599983 4.0
0.284 44.3019982 4.0
0.189 41.8440018 4.0
0.095 39.3860016 4.0
0.0 36.9269982 4.0
2.8380001 55.2820015 4.0
2.082 54.0800018 4.0
2.744 52.8240013 4.0
1.987 51.6220017 4.0
2.649 50.3650017 4.0
1.892 49.1640015 4.0
2.5550001 47.9070016 4.0
1.798 46.7050019 4.0
2.4600001 45.4490013 4.0
1.703 44.2470017 4.0
2.365 42.9910012 4.0
1.6080001 41.7890015 4.0
2.2709999 40.533001 4.0
1.5140001 39.3310013 4.0
2.1760001 38.0740013 4.0
1.419 36.8730012 4.0
2.082 35.6160012 4.0
1.3250001 34.4150009 4.0
1.987 33.158001 4.0
1.23 31.9559994 4.0
1.892 30.7000008 4.0
1.135 29.4979992 4.0
1.798 28.2420006 4.0
1.041 27.0400009 4.0
1.703 25.7840004 4.0
0.946 24.5820008 4.0
1.6080001 23.3250008 4.0
0.852 22.1240006 4.0
1.5140001 20.8670006 4.0
0.7570001 19.6650009 4.0
1.419 18.4090004 4.0
0.662 17.2070007 4.0
1.3250001 15.9510002 4.0
0.568 14.7489996 4.0
1.23 13.4930001 4.0
0.473 12.2910004 4.0
1.135 11.0340004 4.0
0.378 9.8330002 4.0
1.041 8.5760002 4.0
0.284 7.375 4.0
0.946 6.118 4.0
0.189 4.916 4.0
0.852 3.6600001 4.0
0.095 2.458 4.0
0.7570001 1.202 4.0
0.0 0.0 4.0
4.2579999 55.2270012 4.0
4.9200002 53.9710008 4.0
4.1630001 52.769001 4.0
4.8249998 51.5130005 4.0
4.0679998 50.3110008 4.0
4.731 49.0540009 4.0
3.974 47.8530006 4.0
4.6360002 46.5960007 4.0
3.879 45.394001 4.0
4.5419998 44.1380005 4.0
3.7850001 42.9360008 4.0
4.4470001 41.6800003 4.0
3.6900001 40.4780007 4.0
4.3520002 39.2220001 4.0
3.5950001 38.0200005 4.0
4.2579999 36.7630005 4.0
3.501 35.5620003 4.0
4.1630001 34.3050003 4.0
3.4059999 33.1030006 4.0
4.0679998 31.8470002 4.0
3.312 30.6450005 4.0
3.974 29.389 4.0
3.217 28.1870003 4.0
3.879 26.9309998 4.0
3.122 25.7290001 4.0
3.7850001 24.4729996 4.0
3.0280001 23.2709999 4.0
3.6900001 22.0139999 4.0
2.9330002 20.8129998 4.0
3.5950001 19.5559998 4.0
2.8380001 18.3540001 4.0
3.501 17.0979996 4.0
2.744 15.896 4.0
3.4059999 14.6400004 4.0
2.649 13.4379998 4.0
3.312 12.1820002 4.0
2.5550001 10.9799996 4.0
3.217 9.7229996 4.0
2.4600001 8.5220003 4.0
3.122 7.2649999 4.0
2.365 6.0640001 4.0
3.0280001 4.8070002 4.0
2.2709999 3.605 4.0
2.9330002 2.349 4.0
2.1760001 1.147 4.0
7.0960002 55.118 4.0
6.3390002 53.9160004 4.0
7.0019999 52.6599999 4.0
6.2449999 51.4580002 4.0
6.9070002 50.2010002 4.0
6.1500001 49.0 4.0
6.8119998 47.7430001 4.0
6.0549998 46.5419998 4.0
6.718 45.2849999 4.0
5.961 44.0830002 4.0
6.6230002 42.8269997 4.0
5.8660002 41.625 4.0
6.5279999 40.3689995 4.0
5.7719999 39.1669998 4.0
6.434 37.9109994 4.0
5.6770001 36.7089997 4.0
6.3390002 35.4519997 4.0
5.5819998 34.2509995 4.0
6.2449999 32.9939996 4.0
5.4879999 31.7919998 4.0
6.1500001 30.5359993 4.0
5.3930001 29.3339996 4.0
6.0549998 28.0779991 4.0
5.2979999 26.8759996 4.0
5.961 25.6200009 4.0
5.204 24.4179993 4.0
5.8660002 23.1620007 4.0
5.1090002 21.9599992 4.0
5.7719999 20.7029991 4.0
5.0149999 19.5020008 4.0
5.6770001 18.2450009 4.0
4.9200002 17.0429993 4.0
5.5819998 15.7869997 4.0
4.8249998 14.5850001 4.0
5.4879999 13.3290005 4.0
4.731 12.1269999 4.0
5.3930001 10.8710004 4.0
4.6360002 9.6689997 4.0
5.2979999 8.4119997 4.0
4.5419998 7.211 4.0
5.204 5.954 4.0
4.4470001 4.7519999 4.0
5.1090002 3.4960001 4.0
4.3520002 2.2939999 4.0
5.0149999 1.038 4.0
8.5150004 55.0629997 4.0
9.1780005 53.8069992 4.0
8.4209996 52.6049996 4.0
9.0830002 51.348999 4.0
8.3260002 50.1469994 4.0
8.988 48.8899994 4.0
8.2320004 47.6889992 4.0
8.8940002 46.4319992 4.0
8.1370001 45.230999 4.0
8.7989998 43.973999 4.0
8.0419998 42.7719994 4.0
8.7049999 41.5159989 4.0
7.948 40.3139992 4.0
8.6099997 39.0579987 4.0
7.8530002 37.855999 4.0
8.5150004 36.5999985 4.0
7.7579999 35.3979988 4.0
8.4209996 34.1409988 4.0
7.6640001 32.9399986 4.0
8.3260002 31.6830006 4.0
7.5689998 30.4810009 4.0
8.2320004 29.2250004 4.0
7.4749999 28.0230007 4.0
8.1370001 26.7670002 4.0
7.3800001 25.5650006 4.0
8.0419998 24.309 4.0
7.2849999 23.1070004 4.0
7.948 21.8500004 4.0
7.191 20.6490002 4.0
7.8530002 19.3920002 4.0
7.0960002 18.191 4.0
7.7579999 16.934 4.0
7.0019999 15.7320004 4.0
7.6640001 14.4759999 4.0
6.9070002 13.2740002 4.0
7.5689998 12.0179996 4.0
6.8119998 10.816 4.0
7.4749999 9.5600004 4.0
6.718 8.3579998 4.0
7.3800001 7.1009998 4.0
6.6230002 5.9000002 4.0
7.2849999 4.6430002 4.0
6.5279999 3.441 4.0
7.191 2.1849999 4.0
6.434 0.983 4.0
11.3540001 54.9539986 4.0
10.5970001 53.7519989 4.0
11.2589998 52.4959984 4.0
10.5019999 51.2939987 4.0
11.165 50.0379982 4.0
10.408 48.8359986 4.0
11.0699997 47.5789986 4.0
10.3129997 46.3779984 4.0
10.9750004 45.1209984 4.0
10.2180004 43.9189988 4.0
10.8809996 42.6629982 4.0
10.1239996 41.4609986 4.0
10.7860003 40.2050018 4.0
10.0290003 39.0029984 4.0
10.6920004 37.7470017 4.0
9.9350004 36.5449982 4.0
10.5970001 35.2890015 4.0
9.8400002 34.0870018 4.0
10.5019999 32.8300019 4.0
9.7449999 31.6289997 4.0
10.408 30.3719998 4.0
9.651 29.1700001 4.0
10.3129997 27.9139996 4.0
9.5559998 26.7119999 4.0
10.2180004 25.4559994 4.0
9.4619999 24.2539997 4.0
10.1239996 22.9979992 4.0
9.3669996 21.7959996 4.0
10.0290003 20.5389996 4.0
9.2720003 19.3379994 4.0
9.9350004 18.0809994 4.0
9.1780005 16.8799992 4.0
9.8400002 15.6230002 4.0
9.0830002 14.4209996 4.0
9.7449999 13.165 4.0
8.988 11.9630004 4.0
9.651 10.7069998 4.0
8.8940002 9.5050001 4.0
9.5559998 8.2489996 4.0
8.7989998 7.0469999 4.0
9.4619999 5.79 4.0
8.7049999 4.5890003 4.0
9.3669996 3.332 4.0
8.6099997 2.1300001 4.0
9.2720003 0.874 4.0
12.7729998 54.8989984 4.0
13.4350004 53.6430016 4.0
12.6780005 52.4410019 4.0
13.3409996 51.1850014 4.0
12.5839997 49.9830018 4.0
13.2460003 48.7270012 4.0
12.4890003 47.5250016 4.0
13.1520004 46.2680016 4.0
12.3950005 45.0670013 4.0
13.0570002 43.8100014 4.0
12.3000002 42.6080017 4.0
12.962 41.3520012 4.0
12.2049999 40.1500015 4.0
12.868 38.894001 4.0
12.1110001 37.6920014 4.0
12.7729998 36.4360008 4.0
12.0159998 35.2340012 4.0
12.6780005 33.9780006 4.0
11.922 32.776001 4.0
12.5839997 31.5189991 4.0
11.8269997 30.3180008 4.0
12.4890003 29.0610008 4.0
11.7320004 27.8589994 4.0
12.3950005 26.6030007 4.0
11.6379996 25.4009991 4.0
12.3000002 24.1450005 4.0
11.5430002 22.9430008 4.0
12.2049999 21.6870003 4.0
11.448 20.4850006 4.0
12.1110001 19.2280007 4.0
11.3540001 18.0270004 4.0
12.0159998 16.7700005 4.0
11.2589998 15.5679999 4.0
11.922 14.3120003 4.0
11.165 13.1099997 4.0
11.8269997 11.8540002 4.0
11.0699997 10.6520005 4.0
11.7320004 9.3959999 4.0
10.9750004 8.1940003 4.0
11.6379996 6.9380002 4.0
10.8809996 5.7360001 4.0
11.5430002 4.4790001 4.0
10.7860003 3.2780001 4.0
11.448 2.0209999 4.0
10.6920004 0.819 4.0
15.6120005 54.7900009 4.0
14.8549996 53.5880013 4.0
15.5170002 52.3320007 4.0
14.7600003 51.1300011 4.0
15.422 49.8740006 4.0
14.665 48.6720009 4.0
15.3280001 47.4160004 4.0
14.5710001 46.2140007 4.0
15.2329998 44.9570008 4.0
14.4759999 43.7560005 4.0
15.1379995 42.4990006 4.0
14.382 41.2970009 4.0
15.0439997 40.0410004 4.0
14.2869997 38.8390008 4.0
14.9490004 37.5830002 4.0
14.1920004 36.3810005 4.0
14.8549996 35.125 4.0
14.0979996 33.9230004 4.0
14.7600003 32.6660004 4.0
14.0030003 31.4650002 4.0
14.665 30.2080002 4.0
13.908 29.007 4.0
14.5710001 27.75 4.0
13.8140002 26.5480004 4.0
14.4759999 25.2919998 4.0
13.7189999 24.0900002 4.0
14.382 22.8339997 4.0
13.625 21.632 4.0
14.2869997 20.3759995 4.0
13.5299998 19.1739998 4.0
14.1920004 17.9169998 4.0
13.4350004 16.7159996 4.0
14.0979996 15.4589997 4.0
13.3409996 14.257 4.0
14.0030003 13.0010004 4.0
13.2460003 11.7989998 4.0
13.908 10.5430002 4.0
13.1520004 9.3409996 4.0
13.8140002 8.085 4.0
13.0570002 6.883 4.0
13.7189999 5.6269999 4.0
12.962 4.4250002 4.0
13.625 3.168 4.0
12.868 1.967 4.0
13.5299998 0.71 4.0
17.0310001 54.7350006 4.0
17.6930008 53.4790001 4.0
16.9360008 52.2770004 4.0
17.5979996 51.0209999 4.0
16.8419992 49.8190003 4.0
17.5039997 48.5629998 4.0
16.7469998 47.3610001 4.0
17.4090004 46.1049995 4.0
16.6520005 44.903 4.0
17.3150005 43.6459999 4.0
16.5580006 42.4449997 4.0
17.2199993 41.1879997 4.0
16.4629994 39.9860002 4.0
17.125 38.7299996 4.0
16.368 37.5279999 4.0
17.0310001 36.2719994 4.0
16.2740002 35.0699997 4.0
16.9360008 33.8139992 4.0
16.1790009 32.6119995 4.0
16.8419992 31.3549996 4.0
16.0849991 30.1539993 4.0
16.7469998 28.8969994 4.0
15.9899998 27.6949997 4.0
16.6520005 26.4389992 4.0
15.8950006 25.2369995 4.0
16.5580006 23.981001 4.0
15.8009997 22.7789994 4.0
16.4629994 21.5230007 4.0
15.7060004 20.3209992 4.0
16.368 19.0650005 4.0
15.6120005 17.863001 4.0
16.2740002 16.6060009 4.0
15.5170002 15.4049997 4.0
16.1790009 14.1479998 4.0
15.422 12.9460002 4.0
16.0849991 11.6899996 4.0
15.3280001 10.4879999 4.0
15.9899998 9.2320004 4.0
15.2329998 8.0299997 4.0
15.8950006 6.7740002 4.0
15.1379995 5.5720001 4.0
15.8009997 4.3150001 4.0
15.0439997 3.1140001 4.0
15.7060004 1.857 4.0
14.9490004 0.656 4.0
19.8689996 54.6259995 4.0
19.1119995 53.4239998 4.0
19.7749996 52.1679993 4.0
19.0179996 50.9659996 4.0
19.6800003 49.7099991 4.0
18.9230004 48.5079994 4.0
19.5849991 47.2519989 4.0
18.8279991 46.0499992 4.0
19.4909992 44.7929993 4.0
18.7339993 43.5919991 4.0
19.3959999 42.3349991 4.0
18.639 41.1339989 4.0
19.3020001 39.876999 4.0
18.5450001 38.6749993 4.0
19.2070007 37.4189987 4.0
18.4500008 36.2169991 4.0
19.1119995 34.9609986 4.0
18.3549996 33.7589989 4.0
19.0179996 32.5029984 4.0
18.2609997 31.3010006 4.0
18.9230004 30.0440006 4.0
18.1660004 28.8430004 4.0
18.8279991 27.5860005 4.0
18.0720005 26.3840008 4.0
18.7339993 25.1280003 4.0
17.9769994 23.9260006 4.0
18.639 22.6700001 4.0
17.882 21.4680004 4.0
18.5450001 20.2119999 4.0
17.7880001 19.0100002 4.0
18.4500008 17.7539997 4.0
17.6930008 16.5520001 4.0
18.3549996 15.2950001 4.0
17.5979996 14.0939999 4.0
18.2609997 12.8369999 4.0
17.5039997 11.6350003 4.0
18.1660004 10.3789997 4.0
17.4090004 9.1770001 4.0
18.0720005 7.921 4.0
17.3150005 6.7189999 4.0
17.9769994 5.4629998 4.0
17.2199993 4.2610002 4.0
17.882 3.0039999 4.0
17.125 1.803 4.0
17.7880001 0.546 4.0
21.2880001 54.5719986 4.0
21.9510002 53.3149986 4.0
21.1940003 52.112999 4.0
21.856001 50.8569984 4.0
21.0990009 49.6549988 4.0
21.7619992 48.3989983 4.0
21.0049992 47.1969986 4.0
21.6669998 45.941002 4.0
20.9099998 44.7389984 4.0
21.5720005 43.4819985 4.0
20.8150006 42.2809982 4.0
21.4780007 41.0239983 4.0
20.7210007 39.8230019 4.0
21.3829994 38.5660019 4.0
20.6259995 37.3639984 4.0
21.2880001 36.1080017 4.0
20.5319996 34.9059982 4.0
21.1940003 33.6500016 4.0
20.4370003 32.4480019 4.0
21.0990009 31.1919994 4.0
20.3419991 29.9899998 4.0
21.0049992 28.7329998 4.0
20.2479992 27.5319996 4.0
20.9099998 26.2749996 4.0
20.1529999 25.073 4.0
20.8150006 23.8169995 4.0
20.0580006 22.6149998 4.0
20.7210007 21.3589993 4.0
19.9640008 20.1569996 4.0
20.6259995 18.9009992 4.0
19.8689996 17.6989994 4.0
20.5319996 16.4419995 4.0
19.7749996 15.2410002 4.0
20.4370003 13.9840002 4.0
19.6800003 12.783 4.0
20.3419991 11.526 4.0
19.5849991 10.3240004 4.0
20.2479992 9.0679998 4.0
19.4909992 7.8660002 4.0
20.1529999 6.6100002 4.0
19.3959999 5.408 4.0
20.0580006 4.152 4.0
19.3020001 2.95 4.0
19.9640008 1.693 4.0
19.2070007 0.492 4.0
24.1270008 54.4620018 4.0
23.3700009 53.2610016 4.0
24.0319996 52.0040016 4.0
23.2749996 50.8019982 4.0
23.9379998 49.5460015 4.0
23.1809998 48.3440018 4.0
23.8430004 47.0880013 4.0
23.0860004 45.8860016 4.0
23.7479992 44.6300011 4.0
22.9920006 43.4280014 4.0
23.6539994 42.1710014 4.0
22.8969994 40.9700012 4.0
23.559 39.7130013 4.0
22.8020001 38.5110016 4.0
23.4650002 37.2550011 4.0
22.7080002 36.0530014 4.0
23.3700009 34.7970009 4.0
22.6130009 33.5950012 4.0
23.2749996 32.3390007 4.0
22.5179997 31.1369991 4.0
23.1809998 29.8810006 4.0
22.4239998 28.6790009 4.0
23.0860004 27.4220009 4.0
22.3290005 26.2210007 4.0
22.9920006 24.9640008 4.0
22.2350006 23.7619992 4.0
22.8969994 22.5060005 4.0
22.1399994 21.3040009 4.0
22.8020001 20.0480003 4.0
22.0450001 18.8460008 4.0
22.7080002 17.5900002 4.0
21.9510002 16.3880005 4.0
22.6130009 15.1309996 4.0
21.856001 13.9300004 4.0
22.5179997 12.6730004 4.0
21.7619992 11.4720001 4.0
22.4239998 10.2150002 4.0
21.6669998 9.0129995 4.0
22.3290005 7.757 4.0
21.5720005 6.5549999 4.0
22.2350006 5.2989998 4.0
21.4780007 4.0970001 4.0
22.1399994 2.8410002 4.0
21.3829994 1.6390001 4.0
22.0450001 0.382 4.0
25.5459996 54.408001 4.0
26.2080002 53.151001 4.0
25.4519997 51.9500008 4.0
26.1140003 50.6930008 4.0
25.3570004 49.4910012 4.0
26.0189991 48.2350006 4.0
25.2619991 47.0330009 4.0
25.9249992 45.7770005 4.0
25.1679993 44.5750008 4.0
25.8299999 43.3190003 4.0
25.073 42.1170006 4.0
25.7350006 40.8600006 4.0
24.9780006 39.6590004 4.0
25.6410008 38.4020004 4.0
24.8840008 37.2000008 4.0
25.5459996 35.9440002 4.0
24.7889996 34.7420006 4.0
25.4519997 33.4860001 4.0
24.6949997 32.2840004 4.0
25.3570004 31.0279999 4.0
24.6000004 29.8260002 4.0
25.2619991 28.5699997 4.0
24.5049992 27.368 4.0
25.1679993 26.1110001 4.0
24.4109993 24.9099998 4.0
25.073 23.6529999 4.0
24.316 22.4510002 4.0
24.9780006 21.1949997 4.0
24.2220001 19.993 4.0
24.8840008 18.7369995 4.0
24.1270008 17.5349999 4.0
24.7889996 16.2789993 4.0
24.0319996 15.0769997 4.0
24.6949997 13.8199997 4.0
23.9379998 12.6190005 4.0
24.6000004 11.3620005 4.0
23.8430004 10.1599999 4.0
24.5049992 8.9040004 4.0
23.7479992 7.7020002 4.0
24.4109993 6.4460001 4.0
23.6539994 5.244 4.0
24.316 3.988 4.0
23.559 2.786 4.0
24.2220001 1.53 4.0
23.4650002 0.328 4.0
28.3850002 54.2980003 4.0
27.6280003 53.0970001 4.0
28.2900009 51.8400002 4.0
27.533001 50.639 4.0
28.1949997 49.382 4.0
27.4379998 48.1800003 4.0
28.1009998 46.9239998 4.0
27.3439999 45.7220001 4.0
28.0060005 44.4659996 4.0
27.2490006 43.264 4.0
27.9120008 42.0079994 4.0
27.1550007 40.8059998 4.0
27.8169995 39.5489998 4.0
27.0599995 38.3479996 4.0
27.7220001 37.0909996 4.0
26.9650002 35.889 4.0
27.6280003 34.6329994 4.0
26.8710004 33.4309998 4.0
27.533001 32.1749992 4.0
26.7759991 30.9729996 4.0
27.4379998 29.7169991 4.0
26.6819992 28.5149994 4.0
27.3439999 27.2579994 4.0
26.5869999 26.0569992 4.0
27.2490006 24.7999993 4.0
26.4920006 23.599001 4.0
27.1550007 22.3419991 4.0
26.3980007 21.1399994 4.0
27.0599995 19.8840008 4.0
26.3029995 18.6819992 4.0
26.9650002 17.4260006 4.0
26.2080002 16.2240009 4.0
26.8710004 14.9680004 4.0
26.1140003 13.7659998 4.0
26.7759991 12.5089998 4.0
26.0189991 11.3079996 4.0
26.6819992 10.0509996 4.0
25.9249992 8.849 4.0
26.5869999 7.593 4.0
25.8299999 6.3909998 4.0
26.4920006 5.1350002 4.0
25.7350006 3.9330002 4.0
26.3980007 2.6770001 4.0
25.6410008 1.475 4.0
26.3029995 0.219 4.0
29.8040009 54.2439995 4.0
30.4659996 52.9869996 4.0
29.7089997 51.7859993 4.0
30.3719998 50.5289994 4.0
29.6149998 49.3269997 4.0
30.2770004 48.0709991 4.0
29.5200005 46.8689996 4.0
30.1819992 45.612999 4.0
29.4249993 44.4109993 4.0
30.0879993 43.1549988 4.0
29.3309994 41.9529992 4.0
29.993 40.6969986 4.0
29.2360001 39.494999 4.0
29.8980008 38.237999 4.0
29.1420002 37.0369988 4.0
29.8040009 35.7799988 4.0
29.0470009 34.5779991 4.0
29.7089997 33.3219986 4.0
28.9519998 32.1199989 4.0
29.6149998 30.8640004 4.0
28.8579998 29.6620007 4.0
29.5200005 28.4060001 4.0
28.7630005 27.2040005 4.0
29.4249993 25.9470006 4.0
28.6679993 24.7460003 4.0
29.3309994 23.4890003 4.0
28.5739994 22.2870007 4.0
29.2360001 21.0310001 4.0
28.4790001 19.8290005 4.0
29.1420002 18.573 4.0
28.3850002 17.3710003 4.0
29.0470009 16.1149998 4.0
28.2900009 14.9130002 4.0
28.9519998 13.6569996 4.0
28.1949997 12.4549999 4.0
28.8579998 11.198 4.0
28.1009998 9.9969998 4.0
28.7630005 8.7399998 4.0
28.0060005 7.5380001 4.0
28.6679993 6.2820001 4.0
27.9120008 5.0799999 4.0
28.5739994 3.8239999 4.0
27.8169995 2.622 4.0
28.4790001 1.3660001 4.0
27.7220001 0.164 4.0
31.8850002 52.9329988 4.0
31.7910004 50.4749985 4.0
31.6959992 48.0159988 4.0
31.6019993 45.5579987 4.0
31.507 43.0999985 4.0
31.4120007 40.6419983 4.0
31.3180008 38.1839981 4.0
31.2229996 35.7260018 4.0
31.8850002 34.4690018 4.0
31.1280003 33.2669983 4.0
31.7910004 32.0110016 4.0
31.0340004 30.809 4.0
31.6959992 29.5529995 4.0
30.9389992 28.3509998 4.0
31.6019993 27.0949993 4.0
30.8449994 25.8929996 4.0
31.507 24.6359997 4.0
30.75 23.4349995 4.0
31.4120007 22.1779995 4.0
30.6550007 20.9759998 4.0
31.3180008 19.7199993 4.0
30.5610008 18.5179997 4.0
31.2229996 17.2619991 4.0
30.4659996 16.0599995 4.0
31.1280003 14.8039999 4.0
30.3719998 13.6020003 4.0
31.0340004 12.3459997 4.0
30.2770004 11.1440001 4.0
30.9389992 9.8870002 4.0
30.1819992 8.6859999 4.0
30.8449994 7.4289999 4.0
30.0879993 6.2270002 4.0
30.75 4.9710002 4.0
29.993 3.7690001 4.0
30.6550007 2.513 4.0
29.8980008 1.311 4.0
30.5610008 0.055 4.0
0.0 18.4640007 7.4000001
0.095 16.0049992 7.4000001
0.189 13.547 7.4000001
0.284 11.0889998 7.4000001
0.378 8.6309996 7.4000001
0.473 6.1729999 7.4000001
0.568 3.7149999 7.4000001
0.662 1.2560001 7.4000001
0.0 0.0 7.4000001
0.7570001 54.1889992 7.4000001
0.095 52.9329988 7.4000001
0.852 51.730999 7.4000001
0.189 50.4749985 7.4000001
0.946 49.2729988 7.4000001
0.284 48.0159988 7.4000001
1.041 46.8149987 7.4000001
0.378 45.5579987 7.4000001
1.135 44.355999 7.4000001
0.473 43.0999985 7.4000001
1.23 41.8979988 7.4000001
0.568 40.6419983 7.4000001
1.3250001 39.4399987 7.4000001
0.662 38.1839981 7.4000001
1.419 36.9819984 7.4000001
0.7570001 35.7260018 7.4000001
1.5140001 34.5239983 7.4000001
0.852 33.2669983 7.4000001
1.6080001 32.0660019 7.4000001
0.946 30.809 7.4000001
1.703 29.6070004 7.4000001
1.041 28.3509998 7.4000001
1.798 27.1490002 7.4000001
1.135 25.8929996 7.4000001
1.892 24.691 7.4000001
1.23 23.4349995 7.4000001
1.987 22.2329998 7.4000001
1.3250001 20.9759998 7.4000001
2.082 19.7749996 7.4000001
1.419 18.5179997 7.4000001
2.1760001 17.3169994 7.4000001
1.5140001 16.0599995 7.4000001
2.2709999 14.8579998 7.4000001
1.6080001 13.6020003 7.4000001
2.365 12.3999996 7.4000001
1.703 11.1440001 7.4000001
2.4600001 9.9420004 7.4000001
1.798 8.6859999 7.4000001
2.5550001 7.4840002 7.4000001
1.892 6.2270002 7.4000001
2.649 5.026 7.4000001
1.987 3.7690001 7.4000001
2.744 2.5669999 7.4000001
2.082 1.311 7.4000001
2.8380001 0.109 7.4000001
2.1760001 54.2439995 7.4000001
2.9330002 53.0419998 7.4000001
2.2709999 51.7859993 7.4000001
3.0280001 50.5839997 7.4000001
2.365 49.3269997 7.4000001
3.122 48.1259995 7.4000001
2.4600001 46.8689996 7.4000001
3.217 45.6679993 7.4000001
2.5550001 44.4109993 7.4000001
3.312 43.2089996 7.4000001
2.649 41.9529992 7.4000001
3.4059999 40.7509995 7.4000001
2.744 39.494999 7.4000001
3.501 38.2929993 7.4000001
2.8380001 37.0369988 7.4000001
3.5950001 35.8349991 7.4000001
2.9330002 34.5779991 7.4000001
3.6900001 33.3769989 7.4000001
3.0280001 32.1199989 7.4000001
3.7850001 30.9179994 7.4000001
3.122 29.6620007 7.4000001
3.879 28.4599991 7.4000001
3.217 27.2040005 7.4000001
3.974 26.0020008 7.4000001
3.312 24.7460003 7.4000001
4.0679998 23.5440007 7.4000001
3.4059999 22.2870007 7.4000001
4.1630001 21.0860004 7.4000001
3.501 19.8290005 7.4000001
4.2579999 18.6280003 7.4000001
3.5950001 17.3710003 7.4000001
4.3520002 16.1690006 7.4000001
3.6900001 14.9130002 7.4000001
4.4470001 13.7110005 7.4000001
3.7850001 12.4549999 7.4000001
4.5419998 11.2530003 7.4000001
3.879 9.9969998 7.4000001
4.6360002 8.7950001 7.4000001
3.974 7.5380001 7.4000001
4.731 6.3369999 7.4000001
4.0679998 5.0799999 7.4000001
4.8249998 3.878 7.4000001
4.1630001 2.622 7.4000001
4.9200002 1.42 7.4000001
4.2579999 0.164 7.4000001
5.0149999 54.3530007 7.4000001
4.3520002 53.0970001 7.4000001
5.1090002 51.8950006 7.4000001
4.4470001 50.639 7.4000001
5.204 49.4370003 7.4000001
4.5419998 48.1800003 7.4000001
5.2979999 46.9790002 7.4000001
4.6360002 45.7220001 7.4000001
5.3930001 44.5200005 7.4000001
4.731 43.264 7.4000001
5.4879999 42.0620003 7.4000001
4.8249998 40.8059998 7.4000001
5.5819998 39.6040001 7.4000001
4.9200002 38.3479996 7.4000001
5.6770001 37.1459999 7.4000001
5.0149999 35.889 7.4000001
5.7719999 34.6879998 7.4000001
5.1090002 33.4309998 7.4000001
5.8660002 32.2290001 7.4000001
5.204 30.9729996 7.4000001
5.961 29.7709999 7.4000001
5.2979999 28.5149994 7.4000001
6.0549998 27.3129997 7.4000001
5.3930001 26.0569992 7.4000001
6.1500001 24.8549996 7.4000001
5.4879999 23.599001 7.4000001
6.2449999 22.3969994 7.4000001
5.5819998 21.1399994 7.4000001
6.3390002 19.9389992 7.4000001
5.6770001 18.6819992 7.4000001
6.434 17.4799996 7.4000001
5.7719999 16.2240009 7.4000001
6.5279999 15.0220003 7.4000001
5.8660002 13.7659998 7.4000001
6.6230002 12.5640002 7.4000001
5.961 11.3079996 7.4000001
6.718 10.106 7.4000001
6.0549998 8.849 7.4000001
6.8119998 7.6479998 7.4000001
6.1500001 6.3909998 7.4000001
6.9070002 5.1890001 7.4000001
6.2449999 3.9330002 7.4000001
7.0019999 2.731 7.4000001
6.3390002 1.475 7.4000001
7.0960002 0.273 7.4000001
6.434 54.408001 7.4000001
7.191 53.2060013 7.4000001
6.5279999 51.9500008 7.4000001
7.2849999 50.7480011 7.4000001
6.6230002 49.4910012 7.4000001
7.3800001 48.2900009 7.4000001
6.718 47.0330009 7.4000001
7.4749999 45.8310013 7.4000001
6.8119998 44.5750008 7.4000001
7.5689998 43.3730011 7.4000001
6.9070002 42.1170006 7.4000001
7.6640001 40.915001 7.4000001
7.0019999 39.6590004 7.4000001
7.7579999 38.4570008 7.4000001
7.0960002 37.2000008 7.4000001
7.8530002 35.9990006 7.4000001
7.191 34.7420006 7.4000001
7.948 33.5400009 7.4000001
7.2849999 32.2840004 7.4000001
8.0419998 31.0820007 7.4000001
7.3800001 29.8260002 7.4000001
8.1370001 28.6240006 7.4000001
7.4749999 27.368 7.4000001
8.2320004 26.1660004 7.4000001
7.5689998 24.9099998 7.4000001
8.3260002 23.7080002 7.4000001
7.6640001 22.4510002 7.4000001
8.4209996 21.25 7.4000001
7.7579999 19.993 7.4000001
8.5150004 18.7910004 7.4000001
7.8530002 17.5349999 7.4000001
8.6099997 16.3330002 7.4000001
7.948 15.0769997 7.4000001
8.7049999 13.875 7.4000001
8.0419998 12.6190005 7.4000001
8.7989998 11.4169998 7.4000001
8.1370001 10.1599999 7.4000001
8.8940002 8.9589996 7.4000001
8.2320004 7.7020002 7.4000001
8.988 6.501 7.4000001
8.3260002 5.244 7.4000001
9.0830002 4.0419998 7.4000001
8.4209996 2.786 7.4000001
9.1780005 1.584 7.4000001
8.5150004 0.328 7.4000001
9.2720003 54.5169983 7.4000001
8.6099997 53.2610016 7.4000001
9.3669996 52.0589981 7.4000001
8.7049999 50.8019982 7.4000001
9.4619999 49.6010018 7.4000001
8.7989998 48.3440018 7.4000001
9.5559998 47.1419983 7.4000001
8.8940002 45.8860016 7.4000001
9.651 44.6839981 7.4000001
8.988 43.4280014 7.4000001
9.7449999 42.2260018 7.4000001
9.0830002 40.9700012 7.4000001
9.8400002 39.7680016 7.4000001
9.1780005 38.5110016 7.4000001
9.9350004 37.3100014 7.4000001
9.2720003 36.0530014 7.4000001
10.0290003 34.8520012 7.4000001
9.3669996 33.5950012 7.4000001
10.1239996 32.3930016 7.4000001
9.4619999 31.1369991 7.4000001
10.2180004 29.9349996 7.4000001
9.5559998 28.6790009 7.4000001
10.3129997 27.4769993 7.4000001
9.651 26.2210007 7.4000001
10.408 25.0189991 7.4000001
9.7449999 23.7619992 7.4000001
10.5019999 22.5610008 7.4000001
9.8400002 21.3040009 7.4000001
10.5970001 20.1019993 7.4000001
9.9350004 18.8460008 7.4000001
10.6920004 17.6439991 7.4000001
10.0290003 16.3880005 7.4000001
10.7860003 15.1859999 7.4000001
10.1239996 13.9300004 7.4000001
10.8809996 12.7279997 7.4000001
10.2180004 11.4720001 7.4000001
10.9750004 10.2700005 7.4000001
10.3129997 9.0129995 7.4000001
11.0699997 7.8119998 7.4000001
10.408 6.5549999 7.4000001
11.165 5.3530002 7.4000001
10.5019999 4.0970001 7.4000001
11.2589998 2.895 7.4000001
10.5970001 1.6390001 7.4000001
11.3540001 0.437 7.4000001
10.6920004 54.5719986 7.4000001
11.448 53.3699989 7.4000001
10.7860003 52.112999 7.4000001
11.5430002 50.9119988 7.4000001
10.8809996 49.6549988 7.4000001
11.6379996 48.4529991 7.4000001
10.9750004 47.1969986 7.4000001
11.7320004 45.994999 7.4000001
11.0699997 44.7389984 7.4000001
11.8269997 43.5369988 7.4000001
11.165 42.2809982 7.4000001
11.922 41.0789986 7.4000001
11.2589998 39.8230019 7.4000001
12.0159998 38.6209984 7.4000001
11.3540001 37.3639984 7.4000001
12.1110001 36.1629982 7.4000001
11.448 34.9059982 7.4000001
12.2049999 33.7039986 7.4000001
11.5430002 32.4480019 7.4000001
12.3000002 31.2460003 7.4000001
11.6379996 29.9899998 7.4000001
12.3950005 28.7880001 7.4000001
11.7320004 27.5319996 7.4000001
12.4890003 26.3299999 7.4000001
11.8269997 25.073 7.4000001
12.5839997 23.8719998 7.4000001
11.922 22.6149998 7.4000001
12.6780005 21.4130001 7.4000001
12.0159998 20.1569996 7.4000001
12.7729998 18.955 7.4000001
12.1110001 17.6989994 7.4000001
12.868 16.4969998 7.4000001
12.2049999 15.2410002 7.4000001
12.962 14.0389996 7.4000001
12.3000002 12.783 7.4000001
13.0570002 11.5810004 7.4000001
12.3950005 10.3240004 7.4000001
13.1520004 9.1230002 7.4000001
12.4890003 7.8660002 7.4000001
13.2460003 6.6640001 7.4000001
12.5839997 5.408 7.4000001
13.3409996 4.2059999 7.4000001
12.6780005 2.95 7.4000001
13.4350004 1.7480001 7.4000001
12.7729998 0.492 7.4000001
13.5299998 54.6809998 7.4000001
12.868 53.4239998 7.4000001
13.625 52.2229996 7.4000001
12.962 50.9659996 7.4000001
13.7189999 49.764 7.4000001
13.0570002 48.5079994 7.4000001
13.8140002 47.3059998 7.4000001
13.1520004 46.0499992 7.4000001
13.908 44.8479996 7.4000001
13.2460003 43.5919991 7.4000001
14.0030003 42.3899994 7.4000001
13.3409996 41.1339989 7.4000001
14.0979996 39.9319992 7.4000001
13.4350004 38.6749993 7.4000001
14.1920004 37.473999 7.4000001
13.5299998 36.2169991 7.4000001
14.2869997 35.0149994 7.4000001
13.625 33.7589989 7.4000001
14.382 32.5569992 7.4000001
13.7189999 31.3010006 7.4000001
14.4759999 30.0990009 7.4000001
13.8140002 28.8430004 7.4000001
14.5710001 27.6410008 7.4000001
13.908 26.3840008 7.4000001
14.665 25.1830006 7.4000001
14.0030003 23.9260006 7.4000001
14.7600003 22.7250004 7.4000001
14.0979996 21.4680004 7.4000001
14.8549996 20.2660008 7.4000001
14.1920004 19.0100002 7.4000001
14.9490004 17.8080006 7.4000001
14.2869997 16.5520001 7.4000001
15.0439997 15.3500004 7.4000001
14.382 14.0939999 7.4000001
15.1379995 12.8920002 7.4000001
14.4759999 11.6350003 7.4000001
15.2329998 10.434 7.4000001
14.5710001 9.1770001 7.4000001
15.3280001 7.975 7.4000001
14.665 6.7189999 7.4000001
15.422 5.5170002 7.4000001
14.7600003 4.2610002 7.4000001
15.5170002 3.059 7.4000001
14.8549996 1.803 7.4000001
15.6120005 0.601 7.4000001
14.9490004 54.7350006 7.4000001
15.7060004 53.5340004 7.4000001
15.0439997 52.2770004 7.4000001
15.8009997 51.0760002 7.4000001
15.1379995 49.8190003 7.4000001
15.8950006 48.6170006 7.4000001
15.2329998 47.3610001 7.4000001
15.9899998 46.1590004 7.4000001
15.3280001 44.903 7.4000001
16.0849991 43.7010002 7.4000001
15.422 42.4449997 7.4000001
16.1790009 41.243 7.4000001
15.5170002 39.9860002 7.4000001
16.2740002 38.7849999 7.4000001
15.6120005 37.5279999 7.4000001
16.368 36.3260002 7.4000001
15.7060004 35.0699997 7.4000001
16.4629994 33.868 7.4000001
15.8009997 32.6119995 7.4000001
16.5580006 31.4099999 7.4000001
15.8950006 30.1539993 7.4000001
16.6520005 28.9519998 7.4000001
15.9899998 27.6949997 7.4000001
16.7469998 26.4939995 7.4000001
16.0849991 25.2369995 7.4000001
16.8419992 24.0359993 7.4000001
16.1790009 22.7789994 7.4000001
16.9360008 21.5769997 7.4000001
16.2740002 20.3209992 7.4000001
17.0310001 19.1189995 7.4000001
16.368 17.863001 7.4000001
17.125 16.6609993 7.4000001
16.4629994 15.4049997 7.4000001
17.2199993 14.2030001 7.4000001
16.5580006 12.9460002 7.4000001
17.3150005 11.7449999 7.4000001
16.6520005 10.4879999 7.4000001
17.4090004 9.2860003 7.4000001
16.7469998 8.0299997 7.4000001
17.5039997 6.8280001 7.4000001
16.8419992 5.5720001 7.4000001
17.5979996 4.3699999 7.4000001
16.9360008 3.1140001 7.4000001
17.6930008 1.912 7.4000001
17.0310001 0.656 7.4000001
17.7880001 54.8450012 7.4000001
17.125 53.5880013 7.4000001
17.882 52.3870011 7.4000001
17.2199993 51.1300011 7.4000001
17.9769994 49.9280014 7.4000001
17.3150005 48.6720009 7.4000001
18.0720005 47.4700012 7.4000001
17.4090004 46.2140007 7.4000001
18.1660004 45.012001 7.4000001
17.5039997 43.7560005 7.4000001
18.2609997 42.5540009 7.4000001
17.5979996 41.2970009 7.4000001
18.3549996 40.0960007 7.4000001
17.6930008 38.8390008 7.4000001
18.4500008 37.6370011 7.4000001
17.7880001 36.3810005 7.4000001
18.5450001 35.1790009 7.4000001
17.882 33.9230004 7.4000001
18.639 32.7210007 7.4000001
17.9769994 31.4650002 7.4000001
18.7339993 30.2630005 7.4000001
18.0720005 29.007 7.4000001
18.8279991 27.8050003 7.4000001
18.1660004 26.5480004 7.4000001
18.9230004 25.3470001 7.4000001
18.2609997 24.0900002 7.4000001
19.0179996 22.8880006 7.4000001
18.3549996 21.632 7.4000001
19.1119995 20.4300003 7.4000001
18.4500008 19.1739998 7.4000001
19.2070007 17.9720002 7.4000001
18.5450001 16.7159996 7.4000001
19.3020001 15.514 7.4000001
18.639 14.257 7.4000001
19.3959999 13.0559998 7.4000001
18.7339993 11.7989998 7.4000001
19.4909992 10.5970001 7.4000001
18.8279991 9.3409996 7.4000001
19.5849991 8.1389999 7.4000001
18.9230004 6.883 7.4000001
19.6800003 5.6810003 7.4000001
19.0179996 4.4250002 7.4000001
19.7749996 3.2230001 7.4000001
19.1119995 1.967 7.4000001
19.8689996 0.765 7.4000001
19.2070007 54.8989984 7.4000001
19.9640008 53.6980019 7.4000001
19.3020001 52.4410019 7.4000001
20.0580006 51.2389984 7.4000001
19.3959999 49.9830018 7.4000001
20.1529999 48.7809983 7.4000001
19.4909992 47.5250016 7.4000001
20.2479992 46.3230019 7.4000001
19.5849991 45.0670013 7.4000001
20.3419991 43.8650018 7.4000001
19.6800003 42.6080017 7.4000001
20.4370003 41.4070015 7.4000001
19.7749996 40.1500015 7.4000001
20.5319996 38.948002 7.4000001
19.8689996 37.6920014 7.4000001
20.6259995 36.4900017 7.4000001
19.9640008 35.2340012 7.4000001
20.7210007 34.0320015 7.4000001
20.0580006 32.776001 7.4000001
20.8150006 31.5739994 7.4000001
20.1529999 30.3180008 7.4000001
20.9099998 29.1159992 7.4000001
20.2479992 27.8589994 7.4000001
21.0049992 26.658001 7.4000001
20.3419991 25.4009991 7.4000001
21.0990009 24.1989994 7.4000001
20.4370003 22.9430008 7.4000001
21.1940003 21.7409992 7.4000001
20.5319996 20.4850006 7.4000001
21.2880001 19.283001 7.4000001
20.6259995 18.0270004 7.4000001
21.3829994 16.8250008 7.4000001
20.7210007 15.5679999 7.4000001
21.4780007 14.3669996 7.4000001
20.8150006 13.1099997 7.4000001
21.5720005 11.9090004 7.4000001