written by TR 
1.000000000 
108.481827000 0.000000000 0.000000000 
0.000000000 187.896036000 0.000000000 
0.000000000 0.000000000 18.400000000 
Type1 
15608
Cartesian 
0.86886300 8.58052000 7.41463000 
0.13888600 7.36531000 7.41048000 
0.82558000 6.12480000 7.40625000 
0.09444300 4.91020000 7.40191000 
0.78006200 3.66917000 7.39829000 
0.04788050 2.45513000 7.39505000 
0.73275300 1.21374000 7.39331000 
0.00000110 0.00000166 7.39240000 
2.28636000 8.55349000 7.41533000 
2.97293000 7.31280000 7.41218000 
2.24306000 6.09744000 7.40738000 
2.92869000 4.85632000 7.40448000 
2.19754000 3.64165000 7.39979000 
2.88246000 2.40024000 7.39829000 
2.15024000 1.18616000 7.39505000 
5.11901000 8.50231000 7.41854000 
4.39034000 7.28620000 7.41425000 
5.07604000 6.04505000 7.41228000 
4.34610000 4.82961000 7.40739000 
5.03117000 3.58823000 7.40630000 
4.29991000 2.37352000 7.40190000 
4.98478000 1.13214000 7.40258000 
6.53637000 8.47663000 7.42084000 
7.22228000 7.23555000 7.41973000 
6.49341000 6.01943000 7.41548000 
7.17876000 4.77817000 7.41478000 
6.44857000 3.56275000 7.41044000 
7.13367000 2.32148000 7.41090000 
6.40225000 1.10676000 7.40736000 
8.63964000 7.21095000 7.42252000 
8.59613000 4.75390000 7.41837000 
8.55110000 2.29748000 7.41528000 
9.36778000 8.42754000 7.42601000 
9.32543000 5.96989000 7.42202000 
9.28162000 3.51282000 7.41857000 
9.23668000 1.05659000 7.41665000 
10.78520000 8.40367000 7.42825000 
11.47150000 7.16291000 7.42763000 
10.74280000 5.94656000 7.42459000 
11.42880000 4.70575000 7.42439000 
10.69900000 3.48995000 7.42175000 
11.38500000 2.24923000 7.42245000 
10.65420000 1.03399000 7.42043000 
13.61730000 8.35670000 7.43219000 
12.88890000 7.14016000 7.42921000 
13.57560000 5.89969000 7.42841000 
12.84630000 4.68362000 7.42619000 
13.53270000 3.44315000 7.42622000 
12.80240000 2.22754000 7.42480000 
13.48890000 0.98719500 7.42591000 
15.03480000 8.33434000 7.43313000 
15.72210000 7.09422000 7.43154000 
14.99310000 5.87799000 7.42912000 
15.68010000 4.63782000 7.42841000 
14.95020000 3.42200000 7.42724000 
15.63700000 2.18183000 7.42781000 
14.90640000 0.96634300 7.42761000 
17.86840000 8.28932000 7.43506000 
17.13960000 7.07291000 7.43175000 
17.82720000 5.83304000 7.43024000 
17.09760000 4.61707000 7.42860000 
17.78480000 3.37712000 7.42860000 
17.05450000 2.16147000 7.42853000 
17.74160000 0.92149400 7.43012000 
19.28590000 8.26864000 7.43543000 
19.97400000 7.02905000 7.43324000 
19.24470000 5.81284000 7.43036000 
19.93240000 4.57312000 7.42974000 
19.20230000 3.35730000 7.42896000 
19.88970000 2.11747000 7.43028000 
19.15910000 0.90186600 7.43121000 
22.12010000 8.22640000 7.43850000 
21.39150000 7.00974000 7.43400000 
22.07960000 5.77025000 7.43285000 
21.34990000 4.55412000 7.43052000 
22.03750000 3.31447000 7.43141000 
21.30720000 2.09868000 7.43143000 
21.99450000 0.85892000 7.43433000 
23.53760000 8.20840000 7.44028000 
24.22600000 6.96910000 7.43886000 
23.49710000 5.75247000 7.43465000 
24.18500000 4.51301000 7.43500000 
23.45500000 3.29687000 7.43328000 
24.14250000 2.05727000 7.43576000 
23.41200000 0.84139800 7.43645000 
26.37140000 8.17025000 7.44765000 
25.64350000 6.95290000 7.44185000 
26.33170000 5.71364000 7.44177000 
25.60240000 4.49695000 7.43800000 
26.29020000 3.25753000 7.43978000 
25.56000000 2.04130000 7.43864000 
26.24750000 0.80179300 7.44221000 
27.78880000 8.15583000 7.45154000 
28.47740000 6.91679000 7.45127000 
27.74910000 5.69938000 7.44581000 
28.43720000 4.46017000 7.44680000 
27.70760000 3.24340000 7.44358000 
28.39530000 2.00408000 7.44617000 
27.66500000 0.78771000 7.44552000 
30.62200000 8.12265000 7.46228000 
29.89480000 6.90441000 7.45589000 
30.58330000 5.66545000 7.45622000 
29.85460000 4.44798000 7.45129000 
30.54260000 3.20889000 7.45272000 
29.81280000 1.99201000 7.45007000 
30.50070000 0.75290600 7.45265000 
32.03930000 8.11207000 7.46688000 
32.72830000 6.87340000 7.46681000 
32.00060000 5.65516000 7.46088000 
32.68900000 4.41634000 7.46124000 
31.96000000 3.19883000 7.45693000 
32.64810000 1.95996000 7.45812000 
31.91820000 0.74295000 7.45598000 
34.87210000 8.08386000 7.47726000 
34.14560000 6.86484000 7.47109000 
34.83450000 5.62633000 7.47064000 
34.10640000 4.40812000 7.46530000 
34.79490000 3.16952000 7.46518000 
34.06560000 1.95196000 7.46150000 
34.75400000 0.71339300 7.46198000 
36.28940000 8.07677000 7.48072000 
36.97900000 6.83861000 7.47976000 
36.25190000 5.61970000 7.47408000 
36.94090000 4.38141000 7.47294000 
36.21230000 3.16325000 7.46824000 
36.90100000 1.92492000 7.46743000 
36.17150000 0.70730400 7.46434000 
38.43210000 9.29063000 7.48888000 
39.12250000 8.05284000 7.48770000 
38.39630000 6.83329000 7.48226000 
39.08600000 5.59534000 7.48043000 
38.35830000 4.37657000 7.47533000 
39.04740000 3.13853000 7.47349000 
38.31850000 1.92040000 7.46946000 
39.00750000 0.68238800 7.46806000 
41.26510000 9.26865000 7.49384000 
40.53980000 8.04852000 7.48906000 
41.23020000 6.81095000 7.48686000 
40.50330000 5.59161000 7.48190000 
41.19310000 4.35388000 7.47935000 
40.46480000 3.13524000 7.47492000 
41.15420000 1.89746000 7.47263000 
40.42500000 0.67933400 7.46931000 
42.68240000 9.26506000 7.49397000 
43.37360000 8.02787000 7.49169000 
42.64750000 6.80804000 7.48726000 
43.33800000 5.57065000 7.48434000 
42.61040000 4.35154000 7.47997000 
43.30030000 3.11400000 7.47709000 
42.57160000 1.89547000 7.47340000 
43.26130000 0.65793400 7.47110000 
44.79090000 8.02551000 7.49095000 
44.75530000 5.56895000 7.48402000 
44.71770000 3.11279000 7.47717000 
44.67880000 0.65696200 7.47157000 
45.51620000 9.24576000 7.49459000 
45.48210000 6.78848000 7.48795000 
45.44580000 4.33171000 7.48083000 
45.40770000 1.87544000 7.47442000 
46.93360000 9.24370000 7.49273000 
47.62560000 8.00705000 7.48988000 
46.89950000 6.78717000 7.48664000 
47.59060000 5.55025000 7.48341000 
46.86310000 4.33100000 7.48011000 
47.55360000 3.09386000 7.47714000 
46.82510000 1.87510000 7.47434000 
47.51520000 0.63790000 7.47216000 
49.76860000 9.22605000 7.49003000 
49.04300000 8.00591000 7.48760000 
49.73490000 6.76933000 7.48455000 
49.00800000 5.54979000 7.48185000 
49.69900000 4.31292000 7.47887000 
48.97100000 3.09390000 7.47637000 
49.66140000 1.85685000 7.47406000 
48.93270000 0.63817400 7.47220000 
51.18610000 9.22486000 7.48688000 
51.87880000 7.98865000 7.48418000 
51.15240000 6.76890000 7.48219000 
51.84410000 5.53233000 7.47941000 
51.11640000 4.31310000 7.47739000 
51.80730000 3.07624000 7.47509000 
51.07880000 1.85740000 7.47349000 
51.76930000 0.62040500 7.47215000 
54.02230000 9.20793000 7.48241000 
53.29630000 7.98806000 7.48111000 
53.98870000 6.75181000 7.47869000 
53.26150000 5.53244000 7.47724000 
53.95290000 4.29581000 7.47511000 
53.22470000 3.07685000 7.47389000 
53.91540000 1.83996000 7.47256000 
53.18670000 0.62123800 7.47196000 
55.43980000 9.20700000 7.47881000 
56.13310000 7.97110000 7.47685000 
55.40620000 6.75165000 7.47594000 
56.09830000 5.51529000 7.47412000 
55.37040000 4.29626000 7.47333000 
56.06140000 3.05953000 7.47210000 
55.33280000 1.84077000 7.47179000 
56.02340000 0.60383300 7.47158000 
58.27730000 9.18994000 7.47422000 
57.55060000 7.97049000 7.47371000 
58.24340000 6.73443000 7.47229000 
57.51580000 5.51537000 7.47186000 
58.20740000 4.27885000 7.47085000 
57.47890000 3.06010000 7.47080000 
58.16970000 1.82324000 7.47061000 
57.44080000 0.60462000 7.47125000 
59.69490000 9.18871000 7.47095000 
60.38850000 7.95298000 7.46996000 
59.66100000 6.73396000 7.46975000 
60.35320000 5.49768000 7.46901000 
59.62490000 4.27897000 7.46914000 
60.31600000 3.04224000 7.46902000 
59.58710000 1.82371000 7.46978000 
60.27750000 0.58669000 7.47063000 
62.53350000 9.17068000 7.46766000 
61.80610000 7.95176000 7.46739000 
62.49900000 6.71575000 7.46698000 
61.77080000 5.49713000 7.46710000 
62.46240000 4.26057000 7.46709000 
61.73350000 3.04216000 7.46782000 
62.42410000 1.80519000 7.46857000 
61.69500000 0.58681600 7.47017000 
63.95120000 9.16854000 7.46534000 
64.64480000 7.93282000 7.46523000 
63.91670000 6.71434000 7.46510000 
64.60880000 5.47798000 7.46524000 
63.88000000 4.25972000 7.46573000 
64.57090000 3.02284000 7.46637000 
63.84160000 1.80467000 7.46773000 
64.53180000 0.56742300 7.46918000 
66.79060000 9.14865000 7.46429000 
66.06260000 7.93034000 7.46366000 
66.75530000 6.69421000 7.46394000 
66.02650000 5.47612000 7.46396000 
66.71790000 4.23937000 7.46451000 
65.98850000 3.02141000 7.46538000 
66.67880000 1.78417000 7.46646000 
65.94920000 0.56618100 7.46847000 
68.20850000 9.14489000 7.46321000 
68.90190000 7.90900000 7.46361000 
68.17310000 6.69111000 7.46297000 
68.86490000 5.45451000 7.46344000 
68.13550000 4.23678000 7.46359000 
68.82600000 2.99958000 7.46428000 
68.09630000 1.78188000 7.46554000 
68.78590000 0.54425900 7.46673000 
71.04840000 9.12213000 7.46446000 
70.31970000 7.90445000 7.46309000 
71.01200000 6.66801000 7.46348000 
70.28260000 5.45050000 7.46280000 
70.97350000 4.21337000 7.46310000 
70.24360000 2.99595000 7.46339000 
70.93340000 1.75828000 7.46383000 
70.20340000 0.54078400 7.46549000 
72.46630000 9.11593000 7.46436000 
73.15920000 7.87965000 7.46465000 
72.42980000 6.66235000 7.46320000 
73.12110000 5.42529000 7.46316000 
72.39120000 4.20813000 7.46241000 
73.08110000 2.97044000 7.46212000 
72.35090000 1.75329000 7.46253000 
73.04000000 0.51514600 7.46233000 
75.30620000 9.08927000 7.46653000 
74.57700000 7.87214000 7.46460000 
75.26870000 6.63516000 7.46429000 
74.53880000 5.41821000 7.46270000 
75.22900000 4.18051000 7.46177000 
74.49870000 2.96365000 7.46093000 
75.18780000 1.72540000 7.45965000 
74.45750000 0.50847700 7.46023000 
76.72410000 9.07977000 7.46634000 
77.41610000 7.84286000 7.46583000 
76.68640000 6.62606000 7.46387000 
77.37690000 5.38836000 7.46249000 
76.64670000 4.17172000 7.46071000 
77.33590000 2.93339000 7.45855000 
76.60540000 1.71679000 7.45764000 
77.29370000 0.47804100 7.45523000 
79.56340000 9.04834000 7.46668000 
78.83390000 7.83164000 7.46501000 
79.52460000 6.59393000 7.46340000 
78.79460000 5.37742000 7.46133000 
79.48390000 4.13902000 7.45860000 
78.75350000 2.92265000 7.45664000 
79.44180000 1.68377000 7.45320000 
78.71130000 0.46739700 7.45232000 
80.98120000 9.03496000 7.46491000 
80.94240000 6.58082000 7.46170000 
80.90160000 4.12612000 7.45658000 
80.85940000 1.67100000 7.45053000 
81.67210000 7.79726000 7.46324000 
81.63180000 5.34237000 7.45880000 
81.59000000 2.88713000 7.45260000 
81.54710000 0.43169700 7.44628000 
83.81930000 8.99844000 7.46085000 
83.08990000 7.78203000 7.46053000 
83.77950000 6.54356000 7.45782000 
83.04950000 5.32736000 7.45627000 
83.73800000 4.08831000 7.45229000 
83.00760000 2.87230000 7.44996000 
83.69530000 1.63288000 7.44530000 
82.96470000 0.41695500 7.44331000 
85.23710000 8.98121000 7.45686000 
85.92690000 7.74277000 7.45462000 
85.19720000 6.52661000 7.45441000 
85.88590000 5.28755000 7.45094000 
85.15560000 4.07159000 7.44932000 
85.84350000 2.83211000 7.44488000 
85.11290000 1.61632000 7.44260000 
85.80030000 0.37664500 7.43814000 
88.07420000 8.94015000 7.44902000 
87.34460000 7.72406000 7.45029000 
88.03360000 6.48507000 7.44766000 
87.30350000 5.26917000 7.44735000 
87.99150000 4.02973000 7.44365000 
87.26100000 2.81400000 7.44204000 
87.94850000 1.57429000 7.43793000 
87.21780000 0.35866500 7.43598000 
89.49190000 8.91986000 7.44420000 
90.18120000 7.68105000 7.44255000 
89.45120000 6.46526000 7.44354000 
90.13950000 5.22595000 7.44086000 
89.40910000 4.01032000 7.44042000 
90.09680000 2.77067000 7.43705000 
89.36610000 1.55515000 7.43570000 
90.05330000 0.31530900 7.43253000 
92.32900000 8.87557000 7.43667000 
91.59890000 7.65998000 7.43839000 
92.28770000 6.42091000 7.43672000 
91.55720000 5.20546000 7.43733000 
92.24510000 3.96598000 7.43482000 
91.51430000 2.75062000 7.43444000 
92.20170000 1.51083000 7.43174000 
91.47080000 0.29545700 7.43098000 
93.74670000 8.85335000 7.43313000 
94.43600000 7.61461000 7.43219000 
93.70530000 6.39941000 7.43326000 
94.39380000 5.16019000 7.43142000 
93.66270000 3.94509000 7.43181000 
94.35040000 2.70545000 7.42950000 
93.61920000 1.49032000 7.42953000 
94.30630000 0.25033800 7.42747000 
96.58470000 8.80699000 7.42841000 
95.85380000 7.59207000 7.42921000 
96.54280000 6.35318000 7.42763000 
95.81150000 5.13838000 7.42825000 
96.49950000 3.89897000 7.42601000 
95.76800000 2.68417000 7.42656000 
96.45510000 1.44427000 7.42430000 
95.72380000 0.22928800 7.42513000 
98.00260000 8.78339000 7.42619000 
98.69210000 7.54480000 7.42439000 
97.96060000 6.33027000 7.42459000 
98.64900000 5.09111000 7.42202000 
97.91710000 3.87667000 7.42252000 
98.60450000 2.63691000 7.41973000 
97.87270000 1.42235000 7.42084000 
98.55910000 0.18203700 7.41854000 
100.84100000 8.73507000 7.42245000 
100.11000000 7.52067000 7.42175000 
100.79900000 6.28171000 7.41857000 
100.06700000 5.06752000 7.41837000 
100.75400000 3.82790000 7.41478000 
100.02200000 2.61374000 7.41548000 
100.70900000 1.37346000 7.41228000 
99.97660000 0.15904800 7.41425000 
102.25900000 8.70979000 7.42043000 
102.94800000 7.47091000 7.41665000 
102.21700000 6.25673000 7.41528000 
102.90500000 5.01720000 7.41090000 
102.17200000 3.80325000 7.41044000 
102.85900000 2.56300000 7.40630000 
102.12600000 1.34903000 7.40739000 
102.81200000 0.10815700 7.40448000 
105.09700000 8.65923000 7.41682000 
104.36600000 7.44475000 7.41424000 
105.05400000 6.20519000 7.40946000 
104.32200000 4.99113000 7.40736000 
105.00900000 3.75088000 7.40258000 
104.27600000 2.53707000 7.40190000 
104.96200000 1.29617000 7.39829000 
104.22900000 0.08229920 7.39979000 
106.51500000 8.63238000 7.41553000 
107.20300000 7.39266000 7.41093000 
106.47200000 6.17814000 7.40741000 
107.15900000 4.93780000 7.40257000 
106.42700000 3.72378000 7.39979000 
107.11200000 2.48283000 7.39589000 
106.37900000 1.26908000 7.39505000 
107.06400000 0.02771680 7.39331000 
1.02746000 18.40360000 7.43400000 
0.29977300 17.18690000 7.43344000 
0.98900600 15.94780000 7.43046000 
0.26100800 14.73130000 7.42944000 
0.94997400 13.49200000 7.42670000 
0.22160800 12.27590000 7.42474000 
0.91012700 11.03630000 7.42161000 
0.18111800 9.82051000 7.41846000 
2.44509000 18.37910000 7.43207000 
3.13374000 17.13960000 7.42963000 
2.40661000 15.92260000 7.42936000 
3.09499000 14.68290000 7.42747000 
2.36754000 13.46610000 7.42636000 
3.05558000 12.22620000 7.42428000 
2.32766000 11.00970000 7.42185000 
3.01509000 9.76947000 7.41918000 
5.27756000 18.33220000 7.42894000 
4.55126000 17.11480000 7.42883000 
5.23917000 15.87470000 7.42794000 
4.51248000 14.65750000 7.42740000 
5.20012000 13.41720000 7.42653000 
4.47304000 12.20020000 7.42489000 
5.16021000 10.95980000 7.42350000 
4.43252000 9.74312000 7.42047000 
6.69499000 18.30760000 7.42914000 
7.38261000 17.06730000 7.42927000 
6.65660000 15.84970000 7.42864000 
7.34399000 14.60920000 7.42894000 
6.61752000 13.39180000 7.42766000 
7.30458000 12.15120000 7.42747000 
6.57759000 10.93420000 7.42513000 
7.26414000 9.69332000 7.42430000 
8.79999000 17.04250000 7.43126000 
8.76137000 14.58420000 7.43098000 
8.72195000 12.12620000 7.42953000 
8.68149000 9.66845000 7.42656000 
9.52527000 18.26050000 7.43256000 
9.48732000 15.80190000 7.43253000 
9.44848000 13.34360000 7.43174000 
9.40872000 10.88550000 7.42950000 
10.94260000 18.23580000 7.43598000 
11.63000000 16.99520000 7.43793000 
10.90470000 15.77720000 7.43570000 
11.59200000 14.53660000 7.43705000 
10.86590000 13.31900000 7.43444000 
11.55300000 12.07840000 7.43482000 
10.82610000 10.86120000 7.43181000 
11.51290000 9.62051000 7.43142000 
13.77190000 18.18930000 7.44488000 
13.04740000 16.97070000 7.44204000 
13.73500000 15.73030000 7.44365000 
13.00940000 14.51230000 7.44042000 
13.69690000 13.27190000 7.44086000 
12.97040000 12.05450000 7.43733000 
13.65780000 10.81410000 7.43672000 
12.93030000 9.59712000 7.43325000 
15.18920000 18.16530000 7.44932000 
15.87710000 16.92490000 7.45094000 
15.15240000 15.70640000 7.44735000 
15.84040000 14.46620000 7.44766000 
15.11440000 13.24840000 7.44354000 
15.80230000 12.00830000 7.44255000 
15.07520000 10.79110000 7.43839000 
15.76290000 9.55102000 7.43667000 
18.01800000 18.12100000 7.45782000 
17.29450000 16.90180000 7.45441000 
17.98290000 15.66170000 7.45462000 
17.25780000 14.44330000 7.45029000 
17.94620000 13.20350000 7.44902000 
17.21980000 11.98580000 7.44420000 
17.90810000 10.74610000 7.44193000 
17.18040000 9.52911000 7.43744000 
19.43540000 18.09910000 7.46053000 
20.12410000 16.85910000 7.46085000 
19.40030000 15.63990000 7.45686000 
20.08910000 14.40020000 7.45567000 
19.36370000 13.18190000 7.45063000 
20.05240000 11.94240000 7.44821000 
19.32560000 10.72490000 7.44286000 
20.01410000 9.48540000 7.44002000 
22.26390000 18.05890000 7.46563000 
21.54150000 16.83880000 7.46246000 
22.23060000 15.59920000 7.46180000 
21.50660000 14.38010000 7.45714000 
22.19570000 13.14070000 7.45515000 
21.46990000 11.92240000 7.44945000 
22.15880000 10.68310000 7.44671000 
21.43160000 9.46576000 7.44099000 
23.68120000 18.04020000 7.46658000 
24.37070000 16.80080000 7.46685000 
23.64810000 15.58070000 7.46303000 
24.33750000 14.34140000 7.46203000 
23.61310000 13.12230000 7.45665000 
24.30230000 11.88310000 7.45465000 
23.57630000 10.66490000 7.44841000 
24.26520000 9.42573000 7.44617000 
26.50920000 18.00510000 7.47064000 
25.78800000 16.78400000 7.46787000 
26.47780000 15.54490000 7.46823000 
25.75490000 14.32470000 7.46370000 
26.44440000 13.08570000 7.46294000 
25.71980000 11.86660000 7.45694000 
26.40900000 10.62760000 7.45549000 
25.68260000 9.40936000 7.44892000 
27.92650000 17.99000000 7.47158000 
28.61660000 16.75100000 7.47343000 
27.89510000 15.52990000 7.46998000 
28.58510000 14.29110000 7.47074000 
27.86180000 13.07100000 7.46555000 
28.55140000 11.83210000 7.46531000 
27.82640000 10.61300000 7.45887000 
28.51560000 9.37406000 7.45817000 
30.75420000 17.95970000 7.47761000 
30.03390000 16.73770000 7.47522000 
30.72430000 15.49910000 7.47752000 
30.00230000 14.27800000 7.47343000 
30.69240000 13.03940000 7.47456000 
29.96870000 11.81930000 7.46888000 
30.65840000 10.58060000 7.46904000 
29.93290000 9.36146000 7.46244000 
32.17140000 17.94780000 7.47942000 
32.86230000 16.70940000 7.48304000 
32.14150000 15.48750000 7.48010000 
32.83210000 14.24910000 7.48254000 
32.10970000 13.02820000 7.47796000 
32.79990000 11.78970000 7.47911000 
32.07560000 10.56970000 7.47317000 
32.76520000 9.33118000 7.47338000 
34.99940000 17.92160000 7.48731000 
34.27960000 16.69910000 7.48539000 
34.97070000 15.46100000 7.48891000 
34.24940000 14.23930000 7.48552000 
34.94010000 13.00120000 7.48761000 
34.21710000 11.78040000 7.48271000 
34.90730000 10.54210000 7.48342000 
34.18250000 9.32221000 7.47746000 
36.41660000 17.91240000 7.48930000 
37.10850000 16.67470000 7.49358000 
36.38800000 15.45240000 7.49129000 
37.07940000 14.21460000 7.49414000 
36.35740000 12.99310000 7.49041000 
37.04830000 11.75520000 7.49166000 
36.32460000 10.53450000 7.48663000 
37.01490000 9.29653000 7.48650000 
39.24550000 17.88960000 7.49662000 
38.52570000 16.66690000 7.49524000 
39.21790000 15.42940000 7.49860000 
38.49670000 14.20740000 7.49601000 
39.18840000 12.96990000 7.49771000 
38.46550000 11.74870000 7.49379000 
39.15660000 10.51100000 7.49386000 
40.66280000 17.88250000 7.49749000 
41.35570000 16.64550000 7.50109000 
40.63520000 15.42300000 7.49948000 
41.32760000 14.18590000 7.50149000 
40.60560000 12.96420000 7.49869000 
41.29750000 11.72700000 7.49900000 
40.57390000 10.50600000 7.49502000 
43.49320000 17.86220000 7.50179000 
42.77310000 16.63960000 7.50095000 
43.46640000 15.40290000 7.50311000 
42.74490000 14.18080000 7.50130000 
43.43770000 12.94400000 7.50182000 
42.71480000 11.72260000 7.49891000 
43.40680000 10.48570000 7.49785000 
44.91060000 17.85660000 7.50066000 
44.88380000 15.39810000 7.50179000 
44.85500000 12.94010000 7.50052000 
44.82410000 10.48250000 7.49675000 
45.60480000 16.62030000 7.50278000 
45.57740000 14.16170000 7.50243000 
45.54790000 11.70350000 7.49964000 
47.74300000 17.83800000 7.50085000 
47.02220000 16.61570000 7.50044000 
47.71670000 15.37980000 7.50110000 
46.99480000 14.15800000 7.50002000 
47.68860000 12.92180000 7.49932000 
46.96530000 11.70060000 7.49740000 
47.65830000 10.46430000 7.49546000 
49.16060000 17.83340000 7.49768000 
49.85600000 16.59790000 7.49824000 
49.13420000 15.37600000 7.49774000 
49.82890000 14.14030000 7.49718000 
49.10600000 12.91900000 7.49607000 
49.79990000 11.68310000 7.49441000 
49.07570000 10.46230000 7.49258000 
51.99530000 17.81580000 7.49444000 
51.27350000 16.59400000 7.49418000 
51.96920000 15.35870000 7.49369000 
51.24640000 14.13740000 7.49313000 
51.94120000 12.90190000 7.49174000 
51.21740000 11.68100000 7.49067000 
51.91120000 10.44520000 7.48850000 
53.41300000 17.81150000 7.49000000 
54.10950000 16.57680000 7.48952000 
53.38680000 15.35550000 7.48913000 
54.08250000 14.12040000 7.48798000 
53.35880000 12.89960000 7.48739000 
54.05350000 11.66410000 7.48561000 
53.32870000 10.44380000 7.48466000 
56.25000000 17.79420000 7.48545000 
55.52720000 16.57310000 7.48482000 
56.22380000 15.33850000 7.48382000 
55.50020000 14.11770000 7.48333000 
56.19580000 12.88270000 7.48191000 
55.47110000 11.66230000 7.48134000 
56.16560000 10.42690000 7.47957000 
57.66790000 17.78990000 7.48102000 
58.36530000 16.55580000 7.48010000 
57.64160000 15.33520000 7.47925000 
58.33800000 14.10060000 7.47811000 
57.61340000 12.88040000 7.47754000 
58.30880000 11.64530000 7.47619000 
57.58320000 10.42550000 7.47570000 
60.50720000 17.77210000 7.47765000 
59.78320000 16.55180000 7.47602000 
60.48050000 15.31770000 7.47503000 
59.75590000 14.09760000 7.47400000 
60.45200000 12.86300000 7.47299000 
59.72650000 11.64330000 7.47237000 
60.42140000 10.40810000 7.47134000 
61.92520000 17.76730000 7.47437000 
62.62330000 16.53370000 7.47343000 
61.89850000 15.31390000 7.47153000 
62.59540000 14.07960000 7.47072000 
61.86990000 12.86010000 7.46956000 
62.56560000 11.62530000 7.46887000 
61.83910000 10.40610000 7.46824000 
64.76640000 17.74840000 7.47382000 
64.04140000 16.52890000 7.47080000 
64.73910000 15.29510000 7.47003000 
64.01340000 14.07580000 7.46797000 
64.70990000 12.84140000 7.46748000 
63.98340000 11.62240000 7.46624000 
64.67850000 10.38730000 7.46597000 
66.18460000 17.74260000 7.47214000 
66.88300000 16.50920000 7.47128000 
66.15720000 15.29020000 7.46813000 
66.85430000 14.05620000 7.46767000 
66.12780000 12.83730000 7.46554000 
66.82360000 11.60260000 7.46544000 
66.09630000 10.38410000 7.46415000 
69.02730000 17.72180000 7.47440000 
68.30120000 16.50310000 7.47020000 
68.99910000 15.26940000 7.46961000 
68.27240000 14.05080000 7.46648000 
68.96890000 12.81650000 7.46640000 
68.24160000 11.59810000 7.46428000 
68.93650000 10.36300000 7.46454000 
70.44560000 17.71430000 7.47390000 
71.14400000 16.48100000 7.47302000 
70.41720000 15.26270000 7.46905000 
71.11430000 14.02860000 7.46878000 
70.38690000 12.81050000 7.46584000 
71.08250000 11.57570000 7.46608000 
70.35450000 10.35780000 7.46402000 
73.28910000 17.69080000 7.47717000 
72.56230000 16.47280000 7.47272000 
73.25980000 15.23900000 7.47210000 
72.53240000 14.02120000 7.46858000 
73.22850000 12.78660000 7.46861000 
72.50050000 11.56890000 7.46597000 
73.19500000 10.33340000 7.46634000 
74.70750000 17.68110000 7.47658000 
75.40550000 16.44750000 7.47544000 
74.67800000 15.22990000 7.47179000 
75.37460000 13.99550000 7.47140000 
74.64660000 12.77800000 7.46853000 
75.34150000 11.54270000 7.46866000 
74.61300000 10.32540000 7.46638000 
76.85290000 18.88740000 7.47942000 
77.55120000 17.65400000 7.47761000 
76.82380000 16.43660000 7.47438000 
77.52060000 15.20240000 7.47338000 
76.79270000 13.98510000 7.47077000 
77.48800000 12.75000000 7.47047000 
76.75950000 11.53280000 7.46836000 
77.45320000 10.29680000 7.46827000 
79.69710000 18.85850000 7.47752000 
78.96960000 17.64130000 7.47522000 
79.66670000 16.40720000 7.47343000 
78.93880000 15.19010000 7.47158000 
79.63440000 13.95510000 7.47064000 
78.90610000 12.73800000 7.46922000 
79.60000000 11.50210000 7.46874000 
78.87110000 10.28520000 7.46739000 
81.11550000 18.84380000 7.47343000 
81.08500000 16.39290000 7.46998000 
81.05250000 13.94110000 7.46787000 
81.01790000 11.48840000 7.46658000 
81.81290000 17.60990000 7.47074000 
81.78070000 15.15800000 7.46823000 
81.74660000 12.70520000 7.46685000 
81.71040000 10.25160000 7.46563000 
83.95920000 18.81020000 7.46531000 
83.23120000 17.59350000 7.46555000 
83.92710000 16.35870000 7.46294000 
83.19880000 15.14200000 7.46370000 
83.89310000 13.90620000 7.46203000 
83.16460000 12.68950000 7.46303000 
83.85720000 11.45270000 7.46180000 
83.12830000 10.23610000 7.46246000 
85.37750000 18.79190000 7.45887000 
86.07360000 17.55710000 7.45549000 
85.34520000 16.34070000 7.45693000 
86.03960000 15.10490000 7.45465000 
85.31110000 13.88840000 7.45665000 
86.00390000 12.65170000 7.45515000 
85.27510000 11.43520000 7.45714000 
85.96630000 10.19760000 7.45567000 
88.22050000 18.75320000 7.44765000 
87.49180000 17.53710000 7.44892000 
88.18630000 16.30140000 7.44617000 
87.45760000 15.08520000 7.44841000 
88.15060000 13.84850000 7.44671000 
87.42170000 12.63230000 7.44945000 
88.11320000 11.39470000 7.44821000 
87.38410000 10.17850000 7.45063000 
89.63870000 18.73140000 7.44185000 
90.33340000 17.49580000 7.43886000 
89.60440000 16.27990000 7.44028000 
90.29750000 15.04340000 7.43850000 
89.56850000 13.82740000 7.44099000 
90.26020000 12.59000000 7.44002000 
89.53100000 11.37400000 7.44286000 
90.22140000 10.13580000 7.44193000 
92.48100000 18.68830000 7.43500000 
91.75150000 17.47280000 7.43465000 
92.44490000 16.23630000 7.43285000 
91.71550000 15.02070000 7.43400000 
92.40750000 13.78350000 7.43324000 
91.67800000 12.56770000 7.43543000 
92.36890000 11.32980000 7.43506000 
91.63920000 10.11410000 7.43744000 
93.89910000 18.66420000 7.43328000 
94.59270000 17.42780000 7.43141000 
93.86290000 16.21250000 7.43052000 
94.55520000 14.97540000 7.42974000 
93.82540000 13.76000000 7.43036000 
94.51670000 12.52230000 7.43024000 
93.78670000 11.30690000 7.43175000 
94.47700000 10.06870000 7.43154000 
96.74070000 18.61830000 7.43433000 
96.01070000 17.40320000 7.43143000 
96.70320000 16.16620000 7.43028000 
95.97320000 14.95110000 7.42896000 
96.66470000 13.71360000 7.42860000 
95.93450000 12.49840000 7.42860000 
96.62530000 11.26050000 7.42841000 
95.89480000 10.04540000 7.42912000 
98.15890000 18.59340000 7.43600000 
98.85140000 17.35640000 7.43414000 
98.12120000 16.14130000 7.43121000 
98.81300000 14.90390000 7.43012000 
98.08270000 13.68890000 7.42853000 
98.77380000 12.45110000 7.42781000 
98.04320000 11.23620000 7.42724000 
98.73360000 9.99810000 7.42622000 
100.99900000 18.54660000 7.43943000 
100.26900000 17.33140000 7.43579000 
100.96100000 16.09390000 7.43368000 
100.23100000 14.87880000 7.43099000 
100.92200000 13.64110000 7.42936000 
100.19200000 12.42620000 7.42761000 
100.88200000 11.18820000 7.42591000 
100.15200000 9.97347000 7.42480000 
102.41700000 18.52170000 7.44064000 
103.10900000 17.28410000 7.43749000 
102.37900000 16.06870000 7.43458000 
103.07000000 14.83080000 7.43197000 
102.34000000 13.61570000 7.42959000 
103.03100000 12.37760000 7.42711000 
102.30000000 11.16270000 7.42513000 
102.99000000 9.92432000 7.42218000 
105.25600000 18.47490000 7.43988000 
104.52700000 17.25910000 7.43757000 
105.21700000 16.02090000 7.43421000 
104.48800000 14.80530000 7.43198000 
105.17800000 13.56700000 7.42894000 
104.44900000 12.35170000 7.42666000 
105.13900000 11.11310000 7.42335000 
104.40800000 9.89820000 7.42087000 
106.67400000 18.45030000 7.43872000 
107.36400000 17.21170000 7.43496000 
106.63500000 15.99570000 7.43351000 
107.32500000 14.75690000 7.43029000 
106.59600000 13.54110000 7.42842000 
107.28600000 12.30220000 7.42518000 
106.55600000 11.08670000 7.42263000 
107.24500000 9.84743000 7.41879000 
0.44254500 27.00930000 7.45736000 
1.13509000 25.77180000 7.45149000 
0.41001200 24.55370000 7.45004000 
1.10121000 23.31560000 7.44434000 
0.37489700 22.09810000 7.44334000 
1.06508000 20.85950000 7.43844000 
0.33790000 19.64250000 7.43782000 
3.27629000 26.96800000 7.45129000 
2.55280000 25.74900000 7.44903000 
3.24378000 24.51050000 7.44296000 
2.51888000 23.29230000 7.44150000 
3.20872000 22.05330000 7.43646000 
2.48273000 20.83570000 7.43583000 
3.17181000 19.59630000 7.43220000 
4.69387000 26.94510000 7.44954000 
5.38468000 25.70640000 7.44331000 
4.66133000 24.48730000 7.44078000 
5.35094000 23.24800000 7.43581000 
4.62626000 22.02960000 7.43440000 
5.31500000 20.79000000 7.43113000 
4.58934000 19.57210000 7.43067000 
6.83313000 28.14210000 7.45212000 
7.52380000 26.90310000 7.44602000 
6.80211000 25.68300000 7.44231000 
7.49157000 24.44350000 7.43762000 
6.76837000 23.22430000 7.43500000 
7.45691000 21.98430000 7.43223000 
6.73244000 20.76580000 7.43078000 
7.42039000 19.52560000 7.42981000 
8.94110000 26.87960000 7.44621000 
8.90889000 24.41960000 7.43830000 
8.87425000 21.96010000 7.43349000 
8.83776000 19.50100000 7.43155000 
9.66101000 28.10060000 7.45069000 
9.63046000 25.63970000 7.44198000 
9.59734000 23.17940000 7.43608000 
9.56210000 20.71960000 7.43323000 
11.07820000 28.07700000 7.45162000 
11.76750000 26.83690000 7.44796000 
11.04770000 25.61570000 7.44381000 
11.73610000 24.37530000 7.44215000 
11.01460000 23.15500000 7.43877000 
11.70240000 21.91440000 7.43909000 
10.97940000 20.69510000 7.43650000 
11.66690000 19.45450000 7.43814000 
13.90250000 28.03510000 7.45411000 
13.18450000 26.81290000 7.45022000 
13.87300000 25.57230000 7.44905000 
13.15320000 24.35100000 7.44558000 
13.84120000 23.11030000 7.44628000 
13.11970000 21.89000000 7.44331000 
13.80740000 20.64930000 7.44530000 
13.08420000 19.42990000 7.44260000 
15.31950000 28.01150000 7.45604000 
16.00800000 26.77070000 7.45523000 
15.29010000 25.54840000 7.45232000 
15.97820000 24.30750000 7.45320000 
15.25830000 23.08620000 7.45053000 
15.94630000 21.84550000 7.45260000 
15.22460000 20.62520000 7.44996000 