written by TR 
1.000000000 
112.735482000 0.000000000 0.000000000 
0.000000000 195.263582000 0.000000000 
0.000000000 0.000000000 18.400000000 
Type1 
16856
Cartesian 
0.86785000 8.58058000 7.41443000 
0.13801700 7.36528000 7.41029000 
0.82485000 6.12486000 7.40609000 
0.09385630 4.91019000 7.40178000 
0.77961700 3.66924000 7.39819000 
0.04758350 2.45512000 7.39499000 
0.73260200 1.21382000 7.39327000 
0.00000107 0.00000053 7.39237000 
2.28535000 8.55371000 7.41512000 
2.97206000 7.31311000 7.41198000 
2.24233000 6.09767000 7.40721000 
2.92809000 4.85664000 7.40433000 
2.19709000 3.64189000 7.39968000 
2.88216000 2.40057000 7.39820000 
2.15009000 1.18641000 7.39499000 
5.11799000 8.50287000 7.41834000 
4.38946000 7.28667000 7.41405000 
5.07531000 6.04561000 7.41209000 
4.34551000 4.83010000 7.40722000 
5.03072000 3.58881000 7.40613000 
4.29960000 2.37402000 7.40177000 
4.98462000 1.13273000 7.40244000 
7.26296000 9.69413000 7.42415000 
6.53534000 8.47736000 7.42066000 
7.22140000 7.23636000 7.41954000 
6.49267000 6.02016000 7.41529000 
7.17816000 4.77898000 7.41458000 
6.44812000 3.56349000 7.41025000 
7.13336000 2.32231000 7.41071000 
6.40208000 1.10751000 7.40719000 
8.68031000 9.66943000 7.42646000 
9.36673000 8.42861000 7.42589000 
8.63874000 7.21194000 7.42236000 
9.32467000 5.97096000 7.42183000 
8.59553000 4.75488000 7.41816000 
9.28116000 3.51389000 7.41835000 
8.55079000 2.29847000 7.41507000 
9.23651000 1.05766000 7.41644000 
11.51170000 9.62186000 7.43140000 
10.78410000 8.40493000 7.42815000 
11.47060000 7.16426000 7.42747000 
10.74210000 5.94781000 7.42440000 
11.42820000 4.70708000 7.42416000 
10.69860000 3.49119000 7.42152000 
11.38470000 2.25056000 7.42222000 
10.65400000 1.03523000 7.42022000 
12.92910000 9.59867000 7.43324000 
13.61620000 8.35834000 7.43205000 
12.88800000 7.14170000 7.42903000 
13.57480000 5.90130000 7.42814000 
12.84560000 4.68514000 7.42593000 
13.53220000 3.44475000 7.42594000 
12.80210000 2.22905000 7.42456000 
13.48870000 0.98879300 7.42570000 
15.76160000 9.55294000 7.43651000 
15.03370000 8.33616000 7.43291000 
15.72120000 7.09612000 7.43116000 
14.99230000 5.87980000 7.42876000 
15.67940000 4.63971000 7.42798000 
14.94970000 3.42379000 7.42690000 
15.63660000 2.18371000 7.42749000 
14.90620000 0.96813100 7.42740000 
17.17910000 9.53121000 7.43711000 
17.86720000 8.29150000 7.43449000 
17.13860000 7.07500000 7.43120000 
17.82640000 5.83522000 7.42955000 
17.09690000 4.61915000 7.42803000 
17.78430000 3.37929000 7.42802000 
17.05410000 2.16354000 7.42814000 
17.74140000 0.92365900 7.42984000 
20.01270000 9.48782000 7.43920000 
19.28470000 8.27098000 7.43460000 
19.97300000 7.03148000 7.43219000 
19.24390000 5.81518000 7.42944000 
19.93170000 4.57555000 7.42877000 
19.20180000 3.35964000 7.42822000 
19.88930000 2.11991000 7.42966000 
19.15890000 0.90421400 7.43086000 
21.43020000 9.46830000 7.43989000 
22.11890000 8.22903000 7.43709000 
21.39050000 7.01231000 7.43267000 
22.07870000 5.77291000 7.43140000 
21.34920000 4.55670000 7.42931000 
22.03700000 3.31715000 7.43028000 
21.30680000 2.10127000 7.43065000 
21.99430000 0.86160800 7.43378000 
24.26390000 9.42852000 7.44450000 
23.53640000 8.21113000 7.43860000 
24.22500000 6.97193000 7.43699000 
23.49620000 5.75524000 7.43295000 
24.18420000 4.51587000 7.43334000 
23.45450000 3.29966000 7.43195000 
24.14210000 2.06015000 7.43467000 
23.41180000 0.84420100 7.43578000 
25.68130000 9.41222000 7.44704000 
26.37030000 8.17321000 7.44554000 
25.64240000 6.95580000 7.43978000 
26.33080000 5.71664000 7.43968000 
25.60170000 4.49989000 7.43615000 
26.28960000 3.26056000 7.43813000 
25.55960000 2.04426000 7.43740000 
26.24730000 0.80484400 7.44133000 
27.78770000 8.15884000 7.44933000 
27.74830000 5.70242000 7.44362000 
27.70710000 3.24647000 7.44185000 
27.66480000 0.79080200 7.44456000 
28.51430000 9.37711000 7.45605000 
28.47640000 6.91988000 7.44899000 
28.43650000 4.46331000 7.44477000 
28.39490000 2.00724000 7.44477000 
29.93160000 9.36457000 7.46034000 
30.62080000 8.12584000 7.46009000 
29.89380000 6.90754000 7.45364000 
30.58240000 5.66866000 7.45407000 
29.85390000 4.45114000 7.44928000 
30.54200000 3.21214000 7.45100000 
29.81240000 1.99519000 7.44867000 
30.50040000 0.75616800 7.45165000 
32.76400000 9.33447000 7.47154000 
32.03810000 8.11531000 7.46486000 
32.72720000 6.87670000 7.46485000 
31.99980000 5.65840000 7.45889000 
32.68830000 4.41967000 7.45947000 
31.95940000 3.20208000 7.45532000 
32.64770000 1.96329000 7.45685000 
31.91790000 0.74621600 7.45501000 
34.18120000 9.32558000 7.47590000 
34.87090000 8.08729000 7.47574000 
34.14460000 6.86819000 7.46940000 
34.83360000 5.62975000 7.46911000 
34.10570000 4.41147000 7.46375000 
34.79430000 3.17295000 7.46391000 
34.06510000 1.95531000 7.46036000 
34.75370000 0.71682200 7.46115000 
37.01350000 9.30014000 7.48561000 
36.28820000 8.08028000 7.47956000 
36.97790000 6.84218000 7.47872000 
36.25100000 5.62319000 7.47287000 
36.94010000 4.38497000 7.47192000 
36.21170000 3.16671000 7.46719000 
36.90060000 1.92847000 7.46661000 
36.17120000 0.71076900 7.46360000 
38.43070000 9.29437000 7.48842000 
39.12120000 8.05664000 7.48732000 
38.39520000 6.83696000 7.48161000 
39.08500000 5.59908000 7.47990000 
38.35750000 4.38021000 7.47462000 
39.04680000 3.14224000 7.47292000 
38.31800000 1.92401000 7.46882000 
39.00720000 0.68609500 7.46753000 
41.26350000 9.27276000 7.49426000 
40.53840000 8.05248000 7.48912000 
41.22890000 6.81496000 7.48699000 
40.50230000 5.59550000 7.48173000 
41.19220000 4.35784000 7.47924000 
40.46410000 3.13908000 7.47459000 
41.15370000 1.90138000 7.47233000 
40.42470000 0.68315700 7.46887000 
42.68070000 9.26941000 7.49487000 
43.37200000 8.03227000 7.49261000 
42.64620000 6.81226000 7.48779000 
43.33680000 5.57494000 7.48485000 
42.60950000 4.35568000 7.48015000 
43.29950000 3.11824000 7.47721000 
42.57110000 1.89957000 7.47326000 
43.26100000 0.66215000 7.47083000 
45.51430000 9.25065000 7.49639000 
44.78930000 8.03019000 7.49229000 
45.48060000 6.79322000 7.48922000 
44.75410000 5.57350000 7.48485000 
45.44470000 4.33635000 7.48153000 
44.71690000 3.11727000 7.47751000 
45.40710000 1.88003000 7.47456000 
44.67840000 0.66141200 7.47138000 
46.93160000 9.24897000 7.49498000 
46.89790000 6.79226000 7.48825000 
46.86210000 4.33595000 7.48106000 
46.82450000 1.88000000 7.47460000 
47.62370000 8.01237000 7.49199000 
47.58920000 5.55542000 7.48482000 
47.55270000 3.09894000 7.47783000 
47.51490000 0.64294400 7.47210000 
49.76620000 9.23209000 7.49302000 
49.04110000 8.01166000 7.49007000 
49.73310000 6.77516000 7.48676000 
49.00660000 5.55537000 7.48353000 
49.69780000 4.31861000 7.48024000 
48.97010000 3.09937000 7.47723000 
49.66070000 1.86247000 7.47454000 
48.93230000 0.64360400 7.47220000 
51.18360000 9.23144000 7.49021000 
51.87640000 7.99530000 7.48721000 
51.15050000 6.77524000 7.48466000 
51.84230000 5.53878000 7.48152000 
51.11510000 4.31928000 7.47894000 
51.80620000 3.08258000 7.47623000 
51.07810000 1.86350000 7.47408000 
51.76890000 0.62668900 7.47227000 
54.01930000 9.21559000 7.48617000 
53.29380000 7.99534000 7.48437000 
53.98640000 6.75920000 7.48155000 
53.25970000 5.53949000 7.47954000 
53.95140000 4.30302000 7.47696000 
53.22360000 3.08377000 7.47516000 
53.91460000 1.84708000 7.47333000 
53.18630000 0.62810300 7.47214000 
55.43680000 9.21541000 7.48269000 
56.13020000 7.97962000 7.48031000 
55.40390000 6.75977000 7.47893000 
56.09620000 5.52357000 7.47663000 
55.36880000 4.30418000 7.47529000 
56.06020000 3.06765000 7.47356000 
55.33200000 1.84859000 7.47264000 
56.02290000 0.61189100 7.47188000 
58.27370000 9.19980000 7.47795000 
57.54770000 7.97988000 7.47716000 
58.24070000 6.74398000 7.47526000 
57.51360000 5.52450000 7.47441000 
58.20550000 4.28819000 7.47289000 
57.47760000 3.06907000 7.47231000 
58.16870000 1.83247000 7.47159000 
57.44030000 0.61352000 7.47162000 
59.69120000 9.19961000 7.47444000 
60.38500000 7.96404000 7.47301000 
59.65820000 6.74453000 7.47260000 
60.35070000 5.50847000 7.47139000 
59.62300000 4.28932000 7.47115000 
60.31450000 3.05286000 7.47054000 
59.58620000 1.83394000 7.47081000 
60.27710000 0.59723900 7.47117000 
62.52920000 9.18352000 7.47023000 
61.80260000 7.96404000 7.47008000 
62.49580000 6.72826000 7.46924000 
61.76830000 5.50913000 7.46927000 
62.46030000 4.27286000 7.46885000 
61.73200000 3.05399000 7.46930000 
62.42310000 1.81736000 7.46967000 
61.69450000 0.59857100 7.47082000 
63.94690000 9.18281000 7.46727000 
64.64080000 7.94734000 7.46682000 
63.91340000 6.72828000 7.46693000 
64.60600000 5.49223000 7.46676000 
63.87780000 4.27345000 7.46727000 
64.56920000 3.03693000 7.46768000 
63.84060000 1.81828000 7.46887000 
64.53130000 0.58144400 7.47018000 
66.78580000 9.16549000 7.46465000 
66.05850000 7.94655000 7.46457000 
66.75170000 6.71075000 7.46466000 
66.02360000 5.49208000 7.46505000 
66.71550000 4.25572000 7.46553000 
65.98680000 3.03722000 7.46658000 
66.67770000 1.80043000 7.46775000 
65.94870000 0.58193000 7.46971000 
68.20360000 9.16371000 7.46273000 
68.89750000 7.92819000 7.46307000 
68.16940000 6.70967000 7.46309000 
68.86180000 5.47350000 7.46366000 
68.13310000 4.25517000 7.46435000 
68.82430000 3.01845000 7.46536000 
68.09520000 1.80019000 7.46697000 
68.78550000 0.56309100 7.46871000 
71.04320000 9.14431000 7.46247000 
70.31520000 7.92598000 7.46187000 
71.00820000 6.69001000 7.46254000 
70.27950000 5.47189000 7.46264000 
70.97110000 4.23528000 7.46351000 
70.24180000 3.01726000 7.46450000 
70.93230000 1.78015000 7.46582000 
70.20300000 0.56206300 7.46798000 
72.46110000 9.14079000 7.46181000 
73.15470000 7.90504000 7.46254000 
72.42600000 6.68712000 7.46190000 
73.11800000 5.45064000 7.46264000 
72.38870000 4.23287000 7.46281000 
73.07950000 2.99578000 7.46368000 
72.34990000 1.77802000 7.46497000 
73.03970000 0.54050400 7.46622000 
74.57250000 7.90064000 7.46240000 
74.53570000 5.44677000 7.46228000 
74.49710000 2.99227000 7.46292000 
74.45720000 0.53713000 7.46496000 
75.30120000 9.11836000 7.46381000 
75.26500000 6.66432000 7.46303000 
75.22680000 4.20974000 7.46272000 
75.18700000 1.75470000 7.46337000 
76.71910000 9.11228000 7.46406000 
77.41210000 7.87610000 7.46458000 
76.68280000 6.65876000 7.46305000 
77.37430000 5.42180000 7.46313000 
76.64450000 4.20459000 7.46223000 
77.33460000 2.96698000 7.46190000 
76.60460000 1.74977000 7.46213000 
77.29370000 0.51171500 7.46175000 
79.55900000 9.08585000 7.46678000 
78.82990000 7.86868000 7.46482000 
79.52170000 6.63178000 7.46463000 
78.79200000 5.41478000 7.46290000 
79.48230000 4.17715000 7.46192000 
78.75220000 2.96023000 7.46084000 
79.44140000 1.72207000 7.45935000 
78.71130000 0.50507300 7.45964000 
80.97690000 9.07642000 7.46681000 
81.66900000 7.83958000 7.46644000 
80.93950000 6.62272000 7.46441000 
81.63000000 5.38509000 7.46302000 
80.90000000 4.16838000 7.46101000 
81.58930000 2.93012000 7.45864000 
80.85900000 1.71346000 7.45738000 
81.54750000 0.47479400 7.45462000 
83.81610000 9.04516000 7.46737000 
83.08680000 7.82839000 7.46576000 
83.77760000 6.59075000 7.46419000 
83.04780000 5.37417000 7.46199000 
83.73720000 4.13584000 7.45910000 
83.00690000 2.91940000 7.45681000 
83.69540000 1.68059000 7.45305000 
82.96500000 0.46415400 7.45173000 
85.23400000 9.03184000 7.46564000 
85.92500000 7.79419000 7.46407000 
85.19540000 6.57768000 7.46255000 
85.88500000 5.33929000 7.45957000 
85.15490000 4.12297000 7.45715000 
85.84340000 2.88405000 7.45289000 
85.11300000 1.66785000 7.45043000 
85.80090000 0.42863100 7.44579000 
88.07200000 8.99551000 7.46146000 
87.34270000 7.77903000 7.46133000 
88.03250000 6.54063000 7.45863000 
87.30260000 5.32435000 7.45705000 
87.99130000 4.08537000 7.45289000 
87.26100000 2.86928000 7.45030000 
87.94890000 1.62994000 7.44531000 
87.21840000 0.41394300 7.44290000 
89.48980000 8.97838000 7.45736000 
90.17970000 7.74001000 7.45522000 
89.45010000 6.52376000 7.45515000 
90.13900000 5.28478000 7.45160000 
89.40890000 4.06874000 7.44990000 
90.09690000 2.82935000 7.44522000 
89.36640000 1.61347000 7.44265000 
90.05400000 0.37389800 7.43788000 
92.32680000 8.93759000 7.44922000 
91.59740000 7.72142000 7.45075000 
92.28650000 6.48252000 7.44815000 
91.55660000 5.26653000 7.44792000 
92.24480000 4.02718000 7.44409000 
91.51440000 2.81137000 7.44236000 
92.20210000 1.57176000 7.43801000 
91.47160000 0.35604900 7.43579000 
93.74450000 8.91745000 7.44426000 
93.70410000 6.46286000 7.44390000 
93.66230000 4.00794000 7.44077000 
93.61960000 1.55279000 7.43577000 
94.43400000 7.67873000 7.44272000 
94.39260000 5.22365000 7.44118000 
94.35010000 2.76839000 7.43725000 
94.30700000 0.31304700 7.43241000 
96.58160000 8.87350000 7.43651000 
95.85160000 7.65783000 7.43844000 
96.54060000 6.41887000 7.43681000 
95.81020000 5.20334000 7.43752000 
96.49840000 3.96396000 7.43495000 
95.76770000 2.74853000 7.43456000 
96.45520000 1.50884000 7.43172000 
95.72450000 0.29338300 7.43086000 
97.99930000 8.85147000 7.43291000 
98.68880000 7.61283000 7.43205000 
97.95830000 6.39756000 7.43324000 
98.64690000 5.15845000 7.43140000 
97.91600000 3.94327000 7.43185000 
98.60380000 2.70373000 7.42946000 
97.87280000 1.48852000 7.42947000 
98.56000000 0.24863900 7.42733000 
100.83700000 8.80549000 7.42814000 
100.10700000 7.59050000 7.42903000 
100.79600000 6.35171000 7.42747000 
100.06500000 5.13684000 7.42815000 
100.75300000 3.89752000 7.42589000 
100.02100000 2.68265000 7.42646000 
100.70900000 1.44284000 7.42415000 
99.97750000 0.22777800 7.42495000 
102.25500000 8.78208000 7.42593000 
102.94500000 7.54359000 7.42416000 
102.21400000 6.32899000 7.42440000 
102.90200000 5.08992000 7.42183000 
102.17000000 3.87541000 7.42236000 
102.85800000 2.63573000 7.41954000 
102.12600000 1.42109000 7.42066000 
102.81300000 0.18087200 7.41834000 
105.09400000 8.73412000 7.42222000 
104.36300000 7.51964000 7.42152000 
105.05200000 6.28078000 7.41835000 
104.32000000 5.06651000 7.41816000 
105.00800000 3.82698000 7.41458000 
104.27600000 2.61274000 7.41529000 
104.96200000 1.37254000 7.41209000 
104.23000000 0.15804900 7.41405000 
106.51200000 8.70901000 7.42022000 
107.20100000 7.47022000 7.41644000 
106.47000000 6.25596000 7.41507000 
107.15800000 5.01652000 7.41071000 
106.42500000 3.80249000 7.41025000 
107.11200000 2.56232000 7.40613000 
106.38000000 1.34827000 7.40722000 
107.06500000 0.10748400 7.40433000 
109.35000000 8.65879000 7.41662000 
108.61900000 7.44423000 7.41405000 
109.30700000 6.20475000 7.40928000 
108.57500000 4.99061000 7.40719000 
109.26200000 3.75044000 7.40244000 
108.53000000 2.53656000 7.40177000 
109.21500000 1.29574000 7.39820000 
108.48300000 0.08178810 7.39968000 
110.76800000 8.63211000 7.41534000 
111.45600000 7.39247000 7.41075000 
110.72500000 6.17787000 7.40724000 
111.41200000 4.93761000 7.40244000 
110.68000000 3.72351000 7.39968000 
111.36600000 2.48265000 7.39582000 
110.63300000 1.26882000 7.39499000 
111.31800000 0.02754450 7.39327000 
1.02515000 18.40360000 7.43363000 
0.29763300 17.18690000 7.43321000 
0.98703700 15.94780000 7.43020000 
0.25921200 14.73130000 7.42925000 
0.94834600 13.49210000 7.42649000 
0.22014300 12.27580000 7.42455000 
0.90882000 11.03630000 7.42140000 
0.17996200 9.82048000 7.41825000 
2.44278000 18.37930000 7.43152000 
3.13160000 17.13980000 7.42913000 
2.40463000 15.92280000 7.42900000 
3.09319000 14.68320000 7.42714000 
2.36591000 13.46630000 7.42610000 
3.05411000 12.22650000 7.42404000 
2.32635000 11.00990000 7.42162000 
3.01393000 9.76978000 7.41896000 
5.27525000 18.33270000 7.42818000 
4.54911000 17.11520000 7.42826000 
5.23720000 15.87520000 7.42750000 
4.51068000 14.65790000 7.42705000 
5.19848000 13.41780000 7.42626000 
4.47156000 12.20070000 7.42465000 
5.15889000 10.96030000 7.42329000 
4.43135000 9.74359000 7.42026000 
6.69268000 18.30830000 7.42841000 
7.38047000 17.06810000 7.42877000 
6.65462000 15.85040000 7.42825000 
7.34217000 14.61000000 7.42870000 
6.61588000 13.39260000 7.42744000 
7.30309000 12.15200000 7.42733000 
6.57627000 10.93490000 7.42495000 
8.79785000 17.04350000 7.43091000 
9.48533000 15.80300000 7.43241000 
8.75955000 14.58520000 7.43086000 
9.44682000 13.34470000 7.43172000 
8.72045000 12.12720000 7.42947000 
9.40736000 10.88660000 7.42946000 
9.52298000 18.26160000 7.43212000 
11.66450000 19.45580000 7.43788000 
10.94030000 18.23710000 7.43579000 
11.62790000 16.99660000 7.43801000 
10.90270000 15.77840000 7.43577000 
11.59020000 14.53800000 7.43725000 
10.86420000 13.32030000 7.43456000 
11.55150000 12.07980000 7.43495000 
10.82470000 10.86240000 7.43185000 
13.08180000 19.43140000 7.44265000 
13.76960000 18.19090000 7.44522000 
13.04520000 16.97230000 7.44236000 
13.73300000 15.73190000 7.44409000 
13.00760000 14.51390000 7.44077000 
13.69520000 13.27360000 7.44118000 
12.96890000 12.05600000 7.43752000 
13.65630000 10.81580000 7.43681000 
15.91010000 19.38640000 7.45289000 
15.18690000 18.16710000 7.44990000 
15.87500000 16.92680000 7.45160000 
15.15040000 15.70820000 7.44792000 
15.83850000 14.46810000 7.44815000 
15.11270000 13.25020000 7.44390000 
15.80070000 12.01020000 7.44272000 
15.07380000 10.79290000 7.43844000 
17.32740000 19.36330000 7.45705000 
18.01590000 18.12310000 7.45863000 
17.29240000 16.90380000 7.45515000 
17.98090000 15.66390000 7.45522000 
17.25600000 14.44540000 7.45075000 
17.94450000 13.20560000 7.44922000 
17.21820000 11.98790000 7.44426000 
17.90660000 10.74820000 7.44169000 
20.15520000 19.32150000 7.46407000 
19.43320000 18.10130000 7.46133000 
20.12210000 16.86140000 7.46146000 
19.39840000 15.64220000 7.45736000 
20.08730000 14.40260000 7.45585000 
19.36200000 13.18430000 7.45066000 
20.05090000 11.94480000 7.44785000 
19.32410000 10.72730000 7.44239000 
21.57260000 19.30110000 7.46564000 
22.26180000 18.06140000 7.46614000 
21.53950000 16.84120000 7.46290000 
22.22870000 15.60170000 7.46190000 
21.50480000 14.38250000 7.45709000 
22.19400000 13.14320000 7.45467000 
21.46840000 11.92500000 7.44883000 
22.15740000 10.68570000 7.44567000 
24.39990000 19.26390000 7.46904000 
23.67910000 18.04280000 7.46688000 
24.36870000 16.80340000 7.46681000 
23.64620000 15.58330000 7.46289000 
24.33570000 14.34410000 7.46146000 
23.61140000 13.12490000 7.45592000 
24.30080000 11.88580000 7.45347000 
23.57490000 10.66760000 7.44711000 
25.81720000 19.24700000 7.46929000 
26.50710000 18.00780000 7.47044000 
25.78610000 16.78670000 7.46760000 
26.47590000 15.54770000 7.46759000 
25.75310000 14.32750000 7.46290000 
26.44280000 13.08860000 7.46173000 
25.71820000 11.86940000 7.45554000 
26.40760000 10.63050000 7.45373000 
27.92440000 17.99280000 7.47118000 
27.89330000 15.53280000 7.46917000 
27.86020000 13.07390000 7.46420000 
27.82500000 10.61590000 7.45699000 
28.64410000 19.21490000 7.47298000 
28.61470000 16.75400000 7.47275000 
28.58330000 14.29400000 7.46960000 
28.54990000 11.83510000 7.46363000 
30.06140000 19.20140000 7.47384000 
30.75210000 17.96280000 7.47691000 
30.03200000 16.74080000 7.47445000 
30.72250000 15.50220000 7.47651000 
30.00060000 14.28110000 7.47224000 
30.69080000 13.04250000 7.47311000 
29.96720000 11.82240000 7.46719000 
30.65700000 10.58380000 7.46715000 
32.88830000 19.17380000 7.48021000 
32.16930000 17.95100000 7.47870000 
32.86030000 16.71270000 7.48223000 
32.13970000 15.49070000 7.47914000 
32.83040000 14.25240000 7.48143000 
32.10810000 13.03140000 7.47661000 
32.79830000 11.79300000 7.47762000 
32.07430000 10.57290000 7.47142000 
34.30560000 19.16330000 7.48205000 
34.99710000 17.92520000 7.48671000 
34.27750000 16.70260000 7.48471000 
34.96880000 15.46450000 7.48820000 
34.24760000 14.24270000 7.48460000 
34.93840000 13.00470000 7.48663000 
34.21560000 11.78370000 7.48145000 
34.90590000 10.54560000 7.48213000 
37.13310000 19.13940000 7.49005000 
36.41440000 17.91620000 7.48892000 
37.10620000 16.67850000 7.49332000 
36.38600000 15.45600000 7.49086000 
37.07750000 14.21830000 7.49376000 
36.35570000 12.99670000 7.48976000 
37.04670000 11.75880000 7.49103000 
36.32310000 10.53810000 7.48569000 
38.55040000 19.13130000 7.49187000 
39.24290000 17.89390000 7.49683000 
38.52350000 16.67100000 7.49534000 
39.21570000 15.43350000 7.49887000 
38.49470000 14.21140000 7.49603000 
39.18640000 12.97390000 7.49783000 
38.46390000 11.75250000 7.49359000 
39.15500000 10.51490000 7.49374000 
41.37910000 19.11040000 7.49888000 
40.66020000 17.88710000 7.49815000 
41.35320000 16.65010000 7.50204000 
40.63290000 15.42740000 7.50022000 
41.32540000 14.19030000 7.50242000 
40.60370000 12.96840000 7.49930000 
41.29560000 11.73120000 7.49972000 
40.57220000 10.51010000 7.49538000 
42.79640000 19.10410000 7.49944000 
43.49010000 17.86750000 7.50343000 
42.77040000 16.64450000 7.50245000 
43.46370000 15.40780000 7.50487000 
42.74270000 14.18550000 7.50278000 
43.43540000 12.94870000 7.50345000 
42.71280000 11.72720000 7.50016000 
43.40490000 10.49020000 7.49916000 
45.62680000 19.08540000 7.50327000 
44.90750000 17.86230000 7.50290000 
45.60160000 16.62600000 7.50537000 
44.88100000 15.40350000 7.50415000 
45.57460000 14.16710000 7.50499000 
44.85270000 12.94510000 7.50271000 
45.54560000 11.70860000 7.50190000 
44.82220000 10.48740000 7.49858000 
46.99200000 14.16380000 7.50315000 
46.96290000 11.70610000 7.50018000 
47.04430000 19.08050000 7.50185000 
47.73920000 17.84460000 7.50419000 
47.01900000 16.62190000 7.50364000 
47.71340000 15.38590000 7.50455000 
47.68570000 12.92760000 7.50254000 
47.65590000 10.46980000 7.49820000 
49.87670000 19.06330000 7.50166000 
49.15670000 17.84050000 7.50155000 
49.85200000 16.60500000 7.50241000 
49.13080000 15.38270000 7.50172000 
49.82550000 14.14700000 7.50127000 
49.10310000 12.92530000 7.49978000 
49.79700000 11.68940000 7.49806000 
49.07330000 10.46830000 7.49576000 
51.29430000 19.05910000 7.49827000 
51.99050000 17.82400000 7.49899000 
51.26950000 16.60180000 7.49875000 
51.96500000 15.36650000 7.49839000 
51.24290000 14.14470000 7.49761000 
51.93770000 12.90920000 7.49617000 
51.21440000 11.68790000 7.49471000 
51.90820000 10.45210000 7.49233000 
54.12900000 19.04280000 7.49482000 
53.40810000 17.82060000 7.49472000 
54.10450000 16.58580000 7.49438000 
53.38250000 15.36400000 7.49404000 
54.07820000 14.12890000 7.49285000 
53.35520000 12.90760000 7.49206000 
54.04990000 11.67220000 7.49008000 
53.32570000 10.45140000 7.48875000 
55.54680000 19.03900000 7.49023000 
56.24400000 17.80460000 7.48985000 
55.52210000 16.58300000 7.48961000 
56.21860000 15.34830000 7.48860000 
55.49570000 14.12700000 7.48821000 
56.19130000 12.89200000 7.48660000 
55.46740000 11.67110000 7.48589000 
56.16190000 10.43580000 7.48379000 
58.38380000 19.02290000 7.48557000 
57.66180000 17.80140000 7.48500000 
58.35910000 16.56720000 7.48410000 
57.63630000 15.34600000 7.48372000 
58.33270000 14.11140000 7.48243000 
57.60890000 12.89060000 7.48204000 
58.30430000 11.65560000 7.48040000 
57.57950000 10.43520000 7.47983000 
59.80170000 19.01910000 7.48104000 
60.49990000 17.78530000 7.48016000 
59.77690000 16.56430000 7.47935000 
60.47420000 15.33020000 7.47828000 
59.75040000 14.10950000 7.47781000 
60.44670000 12.87490000 7.47656000 
59.72200000 11.65460000 7.47621000 
60.41700000 10.41950000 7.47482000 
62.64100000 19.00260000 7.47760000 
61.91780000 17.78180000 7.47593000 
62.61590000 16.54810000 7.47495000 
61.89210000 15.32760000 7.47395000 
62.58910000 14.09350000 7.47297000 
61.86440000 12.87330000 7.47244000 
62.56030000 11.63860000 7.47147000 
61.83460000 10.41870000 7.47119000 
64.05910000 18.99830000 7.47421000 
64.75790000 17.76510000 7.47322000 
64.03390000 16.54480000 7.47127000 
64.73170000 15.31110000 7.47042000 
64.00690000 14.09110000 7.46927000 
64.70360000 12.85680000 7.46858000 
63.97800000 11.63710000 7.46802000 
64.67340000 10.40220000 7.46745000 
66.90030000 18.98080000 7.47361000 
66.17600000 17.76090000 7.47045000 
66.87460000 16.52750000 7.46958000 
66.14970000 15.30780000 7.46743000 
66.84710000 14.07390000 7.46687000 
66.12150000 12.85440000 7.46562000 
66.81760000 11.61990000 7.46533000 
66.09110000 10.40060000 7.46476000 
68.31850000 18.97570000 7.47186000 
69.01780000 17.74270000 7.47086000 
68.29270000 16.52330000 7.46749000 
68.99080000 15.28980000 7.46690000 
68.26510000 14.07050000 7.46464000 
68.96190000 12.83630000 7.46447000 
68.23540000 11.61730000 7.46317000 
68.93080000 10.38250000 7.46331000 
71.16130000 18.95650000 7.47425000 
70.43600000 17.73740000 7.46970000 
71.13480000 16.50420000 7.46892000 
70.40890000 15.28520000 7.46552000 
71.10640000 14.05140000 7.46530000 
70.37990000 12.83260000 7.46303000 
71.07590000 11.59810000 7.46328000 
70.34870000 10.37960000 7.46195000 
72.57970000 18.95000000 7.47382000 
73.27910000 17.71720000 7.47276000 
72.55300000 16.49850000 7.46832000 
73.25110000 15.26500000 7.46787000 
72.52450000 14.04640000 7.46460000 
73.22120000 12.81220000 7.46478000 
72.49390000 11.59390000 7.46258000 
73.18910000 10.35890000 7.46317000 
74.69740000 17.71000000 7.47263000 
74.66930000 15.25860000 7.46772000 
74.63920000 12.80650000 7.46465000 
74.60700000 10.35390000 7.46307000 
75.42360000 18.92850000 7.47776000 
75.39600000 16.47690000 7.47183000 
75.36660000 14.02470000 7.46766000 
75.33500000 11.57180000 7.46517000 
76.84200000 18.91990000 7.47760000 
77.54110000 17.68700000 7.47633000 
76.81430000 16.46890000 7.47182000 
77.51200000 15.23530000 7.47134000 
76.78470000 14.01740000 7.46780000 
77.48090000 12.78290000 7.46807000 
76.75300000 11.56520000 7.46543000 
77.44770000 10.32980000 7.46607000 
79.68630000 18.89520000 7.48021000 
78.95950000 17.67740000 7.47589000 
79.65760000 16.44400000 7.47482000 
78.93030000 15.22630000 7.47124000 
79.62690000 13.99200000 7.47104000 
78.89900000 12.77440000 7.46825000 
79.59410000 11.53930000 7.46864000 
78.86560000 10.32190000 7.46641000 
81.10480000 18.88390000 7.47870000 
81.80320000 17.65070000 7.47691000 
81.07590000 16.43320000 7.47384000 
81.77280000 15.19910000 7.47298000 
81.04500000 13.98170000 7.47056000 
81.74040000 12.74670000 7.47048000 
81.01210000 11.52940000 7.46853000 
81.70590000 10.29350000 7.46867000 
83.94900000 18.85530000 7.47651000 
83.22160000 17.63810000 7.47445000 
83.91880000 16.40410000 7.47275000 
83.19100000 15.18680000 7.47118000 
83.88670000 13.95190000 7.47044000 
83.15850000 12.73480000 7.46929000 
83.85250000 11.49890000 7.46904000 
83.12380000 10.28200000 7.46790000 
85.36740000 18.84080000 7.47224000 
86.06480000 17.60690000 7.46960000 
85.33700000 16.38990000 7.46917000 
86.03280000 15.15500000 7.46759000 
85.30480000 13.93800000 7.46760000 
85.99890000 12.70220000 7.46681000 
85.27040000 11.48530000 7.46688000 
85.96300000 10.24860000 7.46614000 
88.21100000 18.80740000 7.46363000 
87.48310000 17.59070000 7.46420000 
88.17900000 16.35590000 7.46173000 
87.45100000 15.13910000 7.46290000 
88.14530000 13.90330000 7.46146000 
87.41690000 12.68650000 7.46289000 
88.10960000 11.44980000 7.46190000 
87.38080000 10.23310000 7.46290000 
89.62930000 18.78920000 7.45699000 
90.32540000 17.55440000 7.45373000 
89.59720000 16.33790000 7.45554000 
90.29160000 15.10220000 7.45347000 
89.56330000 13.88560000 7.45592000 
90.25610000 12.64900000 7.45467000 
89.52750000 11.43240000 7.45709000 
90.21880000 10.19480000 7.45585000 
92.47210000 18.75070000 7.44554000 
91.74360000 17.53460000 7.44704000 
92.43820000 16.29890000 7.44450000 
91.70960000 15.08260000 7.44711000 
92.40270000 13.84600000 7.44567000 
91.67400000 12.62970000 7.44883000 
92.36560000 11.39220000 7.44785000 
91.63660000 10.17590000 7.45066000 
93.89040000 18.72910000 7.43978000 
93.85620000 16.27760000 7.43860000 
93.82060000 13.82500000 7.43989000 
93.78330000 11.37160000 7.44239000 
94.58510000 17.49350000 7.43699000 
94.54950000 15.04100000 7.43709000 
94.51240000 12.58760000 7.43920000 
94.47390000 10.13350000 7.44169000 
96.73250000 18.68620000 7.43334000 
96.00320000 17.47070000 7.43295000 
96.69670000 16.23430000 7.43140000 
95.96740000 15.01850000 7.43268000 
96.65960000 13.78140000 7.43219000 
95.93020000 12.56560000 7.43460000 
96.62120000 11.32770000 7.43449000 
95.89170000 10.11190000 7.43711000 
98.15070000 18.66230000 7.43195000 
98.84430000 17.42600000 7.43028000 
98.11470000 16.21060000 7.42931000 
98.80710000 14.97360000 7.42877000 
98.07750000 13.75810000 7.42944000 
98.76890000 12.52050000 7.42955000 
98.03900000 11.30500000 7.43120000 
98.72950000 10.06690000 7.43116000 
100.99200000 18.61680000 7.43378000 
100.26200000 17.40160000 7.43065000 
100.95500000 16.16470000 7.42966000 
100.22500000 14.94940000 7.42822000 
100.91700000 13.71200000 7.42802000 
100.18700000 12.49680000 7.42803000 
100.87800000 11.25890000 7.42798000 
100.14700000 10.04380000 7.42876000 
102.41000000 18.59200000 7.43581000 
103.10300000 17.35510000 7.43399000 
102.37300000 16.14000000 7.43086000 
103.06500000 14.90260000 7.42984000 
102.33500000 13.68750000 7.42814000 
103.02600000 12.44990000 7.42749000 
102.29600000 11.23490000 7.42690000 
102.98600000 9.99687000 7.42594000 
105.25100000 18.54560000 7.43970000 
104.52100000 17.33030000 7.43585000 
105.21300000 16.09290000 7.43371000 
104.48300000 14.87770000 7.43087000 
105.17400000 13.64010000 7.42923000 
104.44400000 12.42510000 7.42740000 
105.13500000 11.18720000 7.42570000 
104.40400000 9.97243000 7.42456000 
106.66900000 18.52090000 7.44098000 
107.36000000 17.28330000 7.43773000 
106.63100000 16.06790000 7.43469000 
107.32200000 14.83010000 7.43201000 
106.59200000 13.61490000 7.42953000 
107.28300000 12.37690000 7.42700000 
106.55300000 11.16190000 7.42496000 
107.24300000 9.92362000 7.42199000 
109.50700000 18.47440000 7.44010000 
108.77800000 17.25850000 7.43777000 
109.46900000 16.02040000 7.43429000 
108.74000000 14.80480000 7.43201000 
109.43000000 13.56650000 7.42889000 
108.70100000 12.35120000 7.42655000 
109.39100000 11.11270000 7.42320000 
108.66100000 9.89767000 7.42069000 
110.92500000 18.45000000 7.43877000 
111.61500000 17.21150000 7.43491000 
110.88700000 15.99540000 7.43349000 
111.57700000 14.75670000 7.43020000 