written by TR 
1.000000000 
116.989155000 0.000000000 0.000000000 
0.000000000 202.631161000 0.000000000 
0.000000000 0.000000000 18.400000000 
Type1 
18152
Cartesian 
0.86719400 8.58057000 7.41441000 
0.13746800 7.36522000 7.41031000 
0.82439600 6.12486000 7.40615000 
0.09350140 4.91015000 7.40188000 
0.77934800 3.66926000 7.39833000 
0.04740560 2.45511000 7.39518000 
0.73250700 1.21386000 7.39347000 
0.00000151 0.00000138 7.39259000 
2.28468000 8.55379000 7.41511000 
2.97149000 7.31326000 7.41199000 
2.24186000 6.09777000 7.40726000 
2.92772000 4.85681000 7.40441000 
2.19681000 3.64202000 7.39980000 
2.88196000 2.40076000 7.39834000 
2.14998000 1.18656000 7.39517000 
5.11730000 8.50318000 7.41831000 
4.38888000 7.28693000 7.41404000 
5.07481000 6.04594000 7.41210000 
4.34512000 4.83038000 7.40727000 
5.03041000 3.58914000 7.40619000 
4.29939000 2.37431000 7.40187000 
4.98449000 1.13308000 7.40253000 
6.53464000 8.47779000 7.42061000 
7.22078000 7.23686000 7.41950000 
6.49216000 6.02060000 7.41527000 
7.17773000 4.77948000 7.41456000 
6.44779000 3.56394000 7.41027000 
7.13311000 2.32281000 7.41073000 
6.40194000 1.10796000 7.40724000 
9.36599000 8.42928000 7.42581000 
8.63812000 7.21255000 7.42230000 
9.32412000 5.97164000 7.42177000 
8.59509000 4.75550000 7.41813000 
9.28080000 3.51457000 7.41832000 
8.55053000 2.29910000 7.41506000 
9.23634000 1.05835000 7.41642000 
10.78330000 8.40574000 7.42807000 
11.46990000 7.16512000 7.42739000 
10.74150000 5.94861000 7.42433000 
11.42770000 4.70794000 7.42410000 
10.69820000 3.49200000 7.42147000 
11.38440000 2.25143000 7.42218000 
10.65380000 1.03604000 7.42018000 
13.61540000 8.35939000 7.43193000 
12.88730000 7.14269000 7.42893000 
13.57420000 5.90235000 7.42804000 
12.84510000 4.68613000 7.42585000 
13.53180000 3.44580000 7.42587000 
12.80180000 2.23005000 7.42450000 
13.48850000 0.98985700 7.42564000 
15.03290000 8.33736000 7.43275000 
15.72040000 7.09738000 7.43096000 
14.99160000 5.88099000 7.42862000 
15.67890000 4.64096000 7.42782000 
14.94920000 3.42498000 7.42679000 
15.63630000 2.18497000 7.42737000 
14.90600000 0.96933300 7.42732000 
17.86630000 8.29296000 7.43412000 
17.13790000 7.07640000 7.43090000 
17.82570000 5.83667000 7.42920000 
17.09630000 4.62055000 7.42778000 
17.78380000 3.38075000 7.42776000 
17.05380000 2.16494000 7.42797000 
17.74110000 0.92513200 7.42967000 
19.28380000 8.27258000 7.43408000 
19.24320000 5.81678000 7.42893000 
19.20130000 3.36124000 7.42784000 
19.15860000 0.90582900 7.43063000 
19.97220000 7.03314000 7.43155000 
19.93110000 4.57722000 7.42823000 
19.88890000 2.12158000 7.42929000 
22.11800000 8.23087000 7.43611000 
21.38970000 7.01409000 7.43182000 
22.07800000 5.77475000 7.43047000 
21.34860000 4.55849000 7.42858000 
22.03650000 3.31901000 7.42957000 
21.30640000 2.10307000 7.43016000 
21.99400000 0.86348200 7.43338000 
23.53550000 8.21307000 7.43739000 
24.22420000 6.97393000 7.43566000 
23.49540000 5.75718000 7.43180000 
24.18360000 4.51789000 7.43221000 
23.45400000 3.30162000 7.43108000 
24.14170000 2.06218000 7.43391000 
23.41150000 0.84617600 7.43528000 
26.36930000 8.17533000 7.44390000 
25.64160000 6.95788000 7.43825000 
26.33010000 5.71878000 7.43815000 
25.60110000 4.50199000 7.43486000 
26.28910000 3.26273000 7.43697000 
25.55920000 2.04637000 7.43653000 
26.24700000 0.80702400 7.44066000 
27.78670000 8.16102000 7.44756000 
28.47560000 6.92213000 7.44720000 
27.74750000 5.70462000 7.44198000 
28.43580000 4.46557000 7.44326000 
27.70660000 3.24869000 7.44059000 
28.39450000 2.00952000 7.44375000 
27.66450000 0.79303200 7.44384000 
30.61990000 8.12816000 7.45826000 
29.89290000 6.90983000 7.45183000 
30.58160000 5.67101000 7.45238000 
29.85320000 4.45344000 7.44775000 
30.54150000 3.21450000 7.44969000 
29.81200000 1.99751000 7.44763000 
30.50010000 0.75855400 7.45087000 
32.03720000 8.11768000 7.46312000 
32.72640000 6.87914000 7.46319000 
31.99900000 5.66079000 7.45726000 
32.68770000 4.42211000 7.45805000 
31.95890000 3.20448000 7.45405000 
32.64730000 1.96576000 7.45585000 
31.91760000 0.74863000 7.45425000 
34.86990000 8.08983000 7.47435000 
34.14370000 6.87068000 7.46791000 
34.83280000 5.63230000 7.46777000 
34.10500000 4.41396000 7.46245000 
34.79380000 3.17550000 7.46283000 
34.06470000 1.95781000 7.45943000 
34.75340000 0.71940000 7.46047000 
36.28720000 8.08292000 7.47845000 
36.97700000 6.84487000 7.47769000 
36.25020000 5.62580000 7.47174000 
36.93940000 4.38765000 7.47095000 
36.21120000 3.16933000 7.46626000 
36.90020000 1.93116000 7.46588000 
36.17090000 0.71339700 7.46299000 
38.39420000 6.83976000 7.48088000 
38.35680000 4.38298000 7.47386000 
38.31760000 1.92678000 7.46821000 
39.12000000 8.05953000 7.48684000 
39.08410000 5.60194000 7.47925000 
39.04620000 3.14508000 7.47230000 
39.00700000 0.68895000 7.46706000 
40.53730000 8.05552000 7.48901000 
41.22790000 6.81806000 7.48690000 
40.50140000 5.59849000 7.48138000 
41.19140000 4.36090000 7.47895000 
40.46360000 3.14205000 7.47417000 
41.15330000 1.90443000 7.47199000 
40.42440000 0.68612500 7.46849000 
43.37070000 8.03568000 7.49328000 
42.64510000 6.81554000 7.48807000 
43.33580000 5.57828000 7.48513000 
42.60870000 4.35890000 7.48014000 
43.29890000 3.12154000 7.47719000 
42.57070000 1.90277000 7.47306000 
43.26070000 0.66545000 7.47060000 
44.78800000 8.03384000 7.49342000 
45.47940000 6.79693000 7.49027000 
44.75310000 5.57706000 7.48548000 
45.44380000 4.33999000 7.48207000 
44.71630000 3.12077000 7.47771000 
45.40660000 1.88363000 7.47465000 
44.67810000 0.66490700 7.47122000 
47.62210000 8.01655000 7.49396000 
46.89670000 6.79624000 7.48971000 
47.58800000 5.55948000 7.48612000 
46.86120000 4.33985000 7.48190000 
47.55190000 3.10293000 7.47847000 
46.82400000 1.88385000 7.47484000 
47.51460000 0.64691500 7.47207000 
49.03950000 8.01618000 7.49247000 
49.73160000 6.77975000 7.48895000 
49.00540000 5.55975000 7.48517000 
49.69670000 4.32309000 7.48160000 
48.96930000 3.10367000 7.47808000 
49.66020000 1.86689000 7.47504000 
48.93200000 0.64787300 7.47223000 
51.87450000 8.00054000 7.49029000 
51.14890000 6.78023000 7.48718000 
51.84090000 5.54386000 7.48369000 
51.11410000 4.32413000 7.48054000 
51.80530000 3.08755000 7.47741000 
51.07760000 1.86828000 7.47470000 
51.76850000 0.63161900 7.47239000 
53.29180000 8.00106000 7.48770000 
53.98450000 6.76500000 7.48448000 
53.25830000 5.54502000 7.48191000 
53.95010000 4.30867000 7.47885000 
53.22270000 3.08917000 7.47647000 
53.91400000 1.85264000 7.47410000 
53.18590000 0.63345700 7.47231000 
56.12780000 7.98629000 7.48385000 
55.40190000 6.76611000 7.48197000 
56.09440000 5.53003000 7.47916000 
55.36750000 4.31034000 7.47727000 
56.05910000 3.07398000 7.47497000 
55.33130000 1.85465000 7.47347000 
56.02260000 0.61814800 7.47211000 
57.54520000 7.98721000 7.48070000 
58.23840000 6.75142000 7.47827000 
57.51180000 5.53159000 7.47695000 
58.20400000 4.29544000 7.47486000 
57.47650000 3.07600000 7.47375000 
58.16800000 1.83959000 7.47245000 
57.44000000 0.62037500 7.47189000 
59.68810000 9.20810000 7.47821000 
60.38200000 7.97264000 7.47626000 
59.65580000 6.75271000 7.47551000 
60.34860000 5.51681000 7.47375000 
59.62140000 4.29729000 7.47308000 
60.31320000 3.06104000 7.47193000 
59.58540000 1.84178000 7.47169000 
60.27670000 0.60532500 7.47152000 
62.52550000 9.19348000 7.47339000 
61.79960000 7.97353000 7.47309000 
62.49300000 6.73790000 7.47176000 
61.76610000 5.51834000 7.47150000 
62.45840000 4.28228000 7.47059000 
61.73070000 3.06302000 7.47065000 
62.42220000 1.82665000 7.47056000 
61.69410000 0.60751800 7.47123000 
63.94310000 9.19384000 7.47002000 
64.63730000 7.95852000 7.46914000 
63.91050000 6.73897000 7.46919000 
64.60340000 5.50314000 7.46860000 
63.87580000 4.28390000 7.46891000 
64.56770000 3.04766000 7.46893000 
63.83960000 1.82860000 7.46978000 
64.53080000 0.59208800 7.47075000 
66.78150000 9.17847000 7.46631000 
66.05490000 7.95898000 7.46646000 
66.74840000 6.72341000 7.46623000 
66.02100000 5.50424000 7.46666000 
66.71330000 4.26816000 7.46686000 
65.98520000 3.04920000 7.46779000 
66.67660000 1.81274000 7.46873000 
65.94820000 0.59382200 7.47040000 
68.19920000 9.17817000 7.46373000 
68.16610000 6.72381000 7.46424000 
68.13080000 4.26910000 7.46550000 
68.09410000 1.81400000 7.46802000 
68.89340000 7.94289000 7.46386000 
68.85890000 5.48795000 7.46465000 
68.82260000 3.03275000 7.46645000 
68.78510000 0.57731500 7.46978000 
71.03840000 9.16137000 7.46196000 
70.31110000 7.94243000 7.46203000 
71.00460000 6.70681000 7.46267000 
70.27650000 5.48810000 7.46327000 
70.96870000 4.25189000 7.46424000 
70.24010000 3.03333000 7.46553000 
70.93120000 1.79667000 7.46709000 
70.20250000 0.57808200 7.46933000 
72.45620000 9.15989000 7.46051000 
73.15030000 7.92452000 7.46135000 
72.42230000 6.70599000 7.46148000 
73.11490000 5.46995000 7.46249000 
72.38630000 4.25159000 7.46331000 
73.07770000 3.01500000 7.46466000 
72.34870000 1.79667000 7.46642000 
73.03930000 0.55968800 7.46836000 
75.29610000 9.14088000 7.46109000 
74.56810000 7.92254000 7.46056000 
75.26130000 6.68670000 7.46161000 
74.53260000 5.46855000 7.46177000 
75.22440000 4.23206000 7.46292000 
74.49530000 3.01399000 7.46396000 
75.18600000 1.77700000 7.46543000 
74.45680000 0.55884000 7.46764000 
76.71390000 9.13756000 7.46084000 
77.40770000 7.90192000 7.46191000 
76.67900000 6.68399000 7.46128000 
77.37130000 5.44762000 7.46226000 
76.64200000 4.22981000 7.46241000 
77.33300000 2.99283000 7.46337000 
76.60350000 1.77501000 7.46463000 
77.29350000 0.53759200 7.46585000 
79.55420000 9.11541000 7.46348000 
78.82550000 7.89768000 7.46207000 
79.51820000 6.66145000 7.46289000 
78.78900000 5.44388000 7.46210000 
79.48020000 4.20694000 7.46260000 
78.75060000 2.98943000 7.46271000 
79.44070000 1.75195000 7.46309000 
78.71100000 0.53432100 7.46457000 
80.97210000 9.10947000 7.46402000 
81.66520000 7.87337000 7.46472000 
80.93600000 6.65600000 7.46312000 
81.62760000 5.41912000 7.46325000 
80.89790000 4.20187000 7.46222000 
81.58810000 2.96435000 7.46181000 
80.85820000 1.74709000 7.46187000 
81.54760000 0.50911800 7.46130000 
83.81210000 9.08323000 7.46716000 
83.08300000 7.86603000 7.46515000 
83.77490000 6.62920000 7.46501000 
83.04530000 5.41217000 7.46314000 
83.73570000 4.17462000 7.46208000 
83.00570000 2.95766000 7.46079000 
83.69510000 1.71957000 7.45910000 
82.96510000 0.50252000 7.45917000 
85.23000000 9.07388000 7.46734000 
85.92220000 7.83709000 7.46702000 
85.19270000 6.62020000 7.46490000 
85.88340000 5.38263000 7.46343000 
85.15340000 4.16589000 7.46123000 
85.84290000 2.92770000 7.45866000 
85.11270000 1.71099000 7.45715000 
85.80130000 0.47240000 7.45413000 
87.34000000 7.82597000 7.46641000 
87.30110000 5.37176000 7.46244000 
87.26050000 2.91701000 7.45686000 
87.21880000 0.46178700 7.45125000 
88.06920000 9.04278000 7.46801000 
88.03090000 6.58838000 7.46478000 
87.99070000 4.13350000 7.45938000 
87.94910000 1.67828000 7.45285000 
89.48700000 9.02952000 7.46627000 
90.17810000 7.79193000 7.46468000 
89.44860000 6.57537000 7.46314000 
90.13830000 5.33705000 7.46002000 
89.40830000 4.12068000 7.45744000 
90.09700000 2.88183000 7.45297000 
89.36670000 1.66557000 7.45026000 
90.05470000 0.42642900 7.44536000 
92.32510000 8.99337000 7.46187000 
91.59590000 7.77684000 7.46186000 
92.28570000 6.53850000 7.45908000 
91.55600000 5.32217000 7.45745000 
92.24470000 4.08326000 7.45312000 
91.51460000 2.86712000 7.45036000 
92.20260000 1.62786000 7.44517000 
91.47220000 0.41180000 7.44251000 
93.74280000 8.97632000 7.45764000 
94.43290000 7.73802000 7.45548000 
93.70340000 6.52172000 7.45549000 
94.39230000 5.28281000 7.45183000 
93.66230000 4.06672000 7.45007000 
94.35050000 2.82741000 7.44525000 
93.62010000 1.61147000 7.44253000 
94.30780000 0.37196800 7.43760000 
96.57990000 8.93575000 7.44921000 
95.85050000 7.71953000 7.45089000 
96.53970000 6.48071000 7.44825000 
95.80990000 5.26467000 7.44806000 
96.49820000 4.02540000 7.44414000 
95.76800000 2.80953000 7.44236000 
96.45580000 1.57000000 7.43791000 
95.72540000 0.35422800 7.43556000 
97.99750000 8.91574000 7.44416000 
98.68710000 7.67710000 7.44266000 
97.95730000 6.46118000 7.44391000 
98.64600000 5.22205000 7.44116000 
97.91580000 4.00630000 7.44077000 
98.60370000 2.76682000 7.43720000 
97.87330000 1.55116000 7.43568000 
98.56080000 0.31149300 7.43227000 
100.83500000 8.87204000 7.43634000 
100.10500000 7.65634000 7.43833000 
100.79400000 6.41746000 7.43672000 
100.06400000 5.20189000 7.43747000 
100.75200000 3.96259000 7.43488000 
100.02100000 2.74710000 7.43449000 
100.70900000 1.50749000 7.43164000 
99.97830000 0.29197200 7.43076000 
102.25200000 8.85016000 7.43275000 
102.94200000 7.61160000 7.43193000 
102.21200000 6.39629000 7.43314000 
102.90000000 5.15726000 7.43130000 
102.16900000 3.94204000 7.43177000 
102.85700000 2.70257000 7.42938000 
102.12600000 1.48731000 7.42940000 
102.81400000 0.24749800 7.42726000 
105.09000000 8.80443000 7.42804000 
104.36000000 7.58940000 7.42893000 
105.04900000 6.35069000 7.42739000 
104.31800000 5.13578000 7.42807000 
105.00600000 3.89654000 7.42581000 
104.27500000 2.68162000 7.42639000 
104.96200000 1.44189000 7.42409000 
104.23100000 0.22677300 7.42490000 
106.50800000 8.78115000 7.42585000 
107.19800000 7.54274000 7.42410000 
106.46700000 6.32810000 7.42433000 
107.15600000 5.08911000 7.42177000 
106.42400000 3.87456000 7.42230000 
107.11100000 2.63496000 7.41950000 
106.38000000 1.42027000 7.42061000 
107.06700000 0.18011700 7.41831000 
109.34700000 8.73343000 7.42218000 
108.61600000 7.51891000 7.42147000 
109.30500000 6.28012000 7.41832000 
108.57300000 5.06581000 7.41813000 
109.26100000 3.82636000 7.41456000 
108.52900000 2.61208000 7.41527000 
109.21600000 1.37195000 7.41210000 
108.48400000 0.15741600 7.41404000 
110.76500000 8.70845000 7.42018000 
111.45400000 7.46973000 7.41642000 
110.72300000 6.25543000 7.41506000 
111.41100000 5.01605000 7.41073000 
110.67900000 3.80199000 7.41027000 
111.36600000 2.56189000 7.40619000 
110.63300000 1.34780000 7.40727000 
111.31900000 0.10707300 7.40441000 
113.60300000 8.65846000 7.41659000 
112.87200000 7.44385000 7.41404000 
113.56000000 6.20444000 7.40930000 
112.82900000 4.99027000 7.40724000 
113.51600000 3.75016000 7.40253000 
112.78300000 2.53623000 7.40187000 
113.46900000 1.29547000 7.39834000 
112.73700000 0.08148270 7.39980000 
115.02100000 8.63188000 7.41532000 
115.70900000 7.39231000 7.41076000 
114.97800000 6.17767000 7.40728000 
115.66500000 4.93747000 7.40253000 
114.93300000 3.72333000 7.39980000 
115.61900000 2.48253000 7.39600000 
114.88700000 1.26866000 7.39517000 
115.57200000 0.02744070 7.39347000 
1.02358000 18.40350000 7.43339000 
0.29618700 17.18670000 7.43305000 
0.98570600 15.94770000 7.43007000 
0.25800600 14.73120000 7.42915000 
0.94725300 13.49200000 7.42641000 
0.21916900 12.27570000 7.42448000 
0.90794800 11.03630000 7.42135000 
0.17920400 9.82040000 7.41822000 
2.44119000 18.37930000 7.43121000 
3.13013000 17.13990000 7.42891000 
2.40329000 15.92280000 7.42885000 
3.09196000 14.68330000 7.42704000 
2.36481000 13.46640000 7.42602000 
3.05311000 12.22660000 7.42398000 
2.32546000 11.01000000 7.42158000 
3.01315000 9.76991000 7.41892000 
5.27364000 18.33300000 7.42781000 
4.54763000 17.11540000 7.42800000 
5.23583000 15.87550000 7.42733000 
4.50943000 14.65810000 7.42694000 
5.19734000 13.41810000 7.42618000 
4.47055000 12.20090000 7.42459000 
5.15798000 10.96060000 7.42325000 
4.43056000 9.74383000 7.42022000 
6.69106000 18.30870000 7.42802000 
7.37896000 17.06850000 7.42852000 
6.65324000 15.85080000 7.42808000 
7.34090000 14.61050000 7.42859000 
6.61473000 13.39300000 7.42736000 
7.30205000 12.15250000 7.42726000 
6.57535000 10.93530000 7.42490000 
7.26214000 9.69462000 7.42409000 
9.52134000 18.26220000 7.43181000 
8.79633000 17.04400000 7.43068000 
9.48392000 15.80370000 7.43227000 
8.75826000 14.58580000 7.43076000 
9.44564000 13.34540000 7.43164000 
8.71940000 12.12780000 7.42939000 
9.40641000 10.88720000 7.42938000 
8.67948000 9.67005000 7.42639000 
10.93870000 18.23790000 7.43556000 
11.62640000 16.99740000 7.43791000 
10.90130000 15.77920000 7.43568000 
11.58890000 14.53880000 7.43720000 
10.86300000 13.32110000 7.43449000 
11.55040000 12.08060000 7.43488000 
10.82380000 10.86320000 7.43177000 
11.51080000 9.62273000 7.43130000 
13.76800000 18.19200000 7.44525000 
13.04370000 16.97330000 7.44236000 
13.73160000 15.73300000 7.44414000 
13.00620000 14.51490000 7.44077000 
13.69400000 13.27460000 7.44116000 
12.96780000 12.05700000 7.43747000 
13.65530000 10.81680000 7.43672000 
12.92820000 9.59967000 7.43314000 
15.18530000 18.16830000 7.45007000 
15.87350000 16.92800000 7.45183000 
15.14900000 15.70940000 7.44806000 
15.83720000 14.46940000 7.44825000 
15.11150000 13.25140000 7.44391000 
15.79960000 12.01150000 7.44266000 
15.07280000 10.79410000 7.43833000 
15.76070000 9.55420000 7.43634000 
18.01420000 18.12460000 7.45908000 
17.29090000 16.90520000 7.45549000 
17.97950000 15.66530000 7.45548000 
17.25460000 14.44680000 7.45089000 
17.94320000 13.20710000 7.44921000 
17.21710000 11.98930000 7.44416000 
17.90550000 10.74970000 7.44144000 
17.17820000 9.53261000 7.43686000 
19.43160000 18.10280000 7.46186000 
19.39690000 15.64380000 7.45764000 
19.36070000 13.18580000 7.45058000 
19.32300000 10.72890000 7.44201000 
20.12050000 16.86310000 7.46187000 
20.08590000 14.40420000 7.45591000 
20.04970000 11.94640000 7.44754000 
20.01170000 9.48948000 7.43863000 
22.26010000 18.06310000 7.46662000 
21.53790000 16.84290000 7.46328000 
22.22730000 15.60350000 7.46200000 
21.50340000 14.38430000 7.45704000 
22.19270000 13.14500000 7.45430000 
21.46710000 11.92670000 7.44835000 
22.15630000 10.68750000 7.44490000 
21.42920000 9.47008000 7.43911000 
23.67750000 18.04460000 7.46725000 
24.36720000 16.80530000 7.46690000 
23.64470000 15.58510000 7.46284000 
24.33430000 14.34600000 7.46105000 
23.61010000 13.12680000 7.45536000 
24.29960000 11.88780000 7.45255000 
23.57370000 10.66950000 7.44610000 
24.26290000 9.43049000 7.44323000 
26.50550000 18.00990000 7.47042000 
25.78450000 16.78870000 7.46750000 
26.47450000 15.54970000 7.46714000 
25.75170000 14.32950000 7.46229000 
26.44150000 13.09060000 7.46074000 
25.71700000 11.87140000 7.45441000 
26.40650000 10.63250000 7.45229000 
25.68030000 9.41428000 7.44556000 
27.92280000 17.99490000 7.47096000 
28.61310000 16.75610000 7.47224000 
27.89180000 15.53490000 7.46853000 
28.58190000 14.29620000 7.46863000 
27.85890000 13.07600000 7.46305000 
28.54870000 11.83730000 7.46218000 
27.82390000 10.61810000 7.45541000 
28.51330000 9.37933000 7.45428000 
30.75040000 17.96510000 7.47635000 
30.03040000 16.74300000 7.47381000 
30.72090000 15.50450000 7.47564000 
29.99920000 14.28330000 7.47119000 
30.68950000 13.04480000 7.47181000 
29.96600000 11.82460000 7.46569000 
30.65580000 10.58610000 7.46547000 
29.93060000 9.36683000 7.45855000 
32.16760000 17.95350000 7.47810000 
32.85870000 16.71520000 7.48152000 
32.13820000 15.49320000 7.47829000 
32.82890000 14.25490000 7.48043000 
32.10670000 13.03380000 7.47538000 
32.79710000 11.79550000 7.47625000 
32.07310000 10.57530000 7.46983000 
32.76290000 9.33690000 7.46992000 
34.99530000 17.92790000 7.48623000 
34.27590000 16.70520000 7.48413000 
34.96710000 15.46720000 7.48760000 
34.24610000 14.24530000 7.48377000 
34.93700000 13.00730000 7.48574000 
34.21430000 11.78630000 7.48029000 
34.90470000 10.54810000 7.48093000 
34.18010000 9.32808000 7.47447000 
36.41250000 17.91910000 7.48866000 
37.10440000 16.68140000 7.49318000 
36.38430000 15.45890000 7.49054000 
37.07590000 14.22110000 7.49347000 
36.35420000 12.99940000 7.48918000 
37.04520000 11.76160000 7.49044000 
36.32190000 10.54080000 7.48480000 
37.01230000 9.30285000 7.48473000 
38.52160000 16.67410000 7.49556000 
38.49310000 14.21440000 7.49614000 
38.46250000 11.75540000 7.49340000 
38.42950000 9.29721000 7.48790000 
39.24080000 17.89710000 7.49716000 
39.21380000 15.43670000 7.49924000 
39.18480000 12.97690000 7.49798000 
39.15360000 10.51780000 7.49355000 
40.65810000 17.89060000 7.49889000 
41.35100000 16.65360000 7.50305000 
40.63100000 15.43080000 7.50104000 
41.32350000 14.19370000 7.50336000 
40.60200000 12.97160000 7.49991000 
41.29390000 11.73450000 7.50036000 
40.57080000 10.51320000 7.49563000 
41.26210000 9.27592000 7.49451000 
43.48760000 17.87150000 7.50503000 
42.76820000 16.64840000 7.50394000 
43.46150000 15.41170000 7.50660000 
42.74070000 14.18920000 7.50422000 
43.43350000 12.95240000 7.50498000 
42.71120000 11.73060000 7.50129000 
43.40330000 10.49370000 7.50030000 
42.67930000 9.27277000 7.49557000 
44.90490000 17.86670000 7.50501000 
45.59900000 16.63040000 7.50782000 
44.87880000 15.40760000 7.50640000 
45.57230000 14.17120000 7.50741000 
44.85070000 12.94910000 7.50477000 
45.54360000 11.71260000 7.50400000 
44.82050000 10.49120000 7.50022000 
45.51270000 9.25447000 7.49799000 
47.73610000 17.84970000 7.50727000 
47.01630000 16.62670000 7.50662000 
47.71070000 15.39070000 7.50779000 
46.98960000 14.16830000 7.50611000 
47.68340000 12.93220000 7.50559000 
46.96090000 11.71040000 7.50281000 
47.65390000 10.47410000 7.50079000 
46.93000000 9.25310000 7.49706000 
49.15350000 17.84620000 7.50515000 
49.84870000 16.61060000 7.50635000 
49.12800000 15.38800000 7.50548000 
49.82260000 14.15230000 7.50518000 
49.10070000 12.93030000 7.50335000 
49.79460000 11.69440000 7.50162000 
49.07120000 10.47300000 7.49884000 
49.76420000 9.23685000 7.49597000 
51.98660000 17.83060000 7.50343000 
51.26620000 16.60790000 7.50315000 
51.96160000 15.37260000 7.50300000 
51.24000000 14.15050000 7.50199000 
51.93470000 12.91490000 7.50056000 
51.21190000 11.69340000 7.49870000 
51.90580000 10.45760000 7.49618000 
51.18160000 9.23663000 7.49355000 
53.40410000 17.82780000 7.49951000 
54.10040000 16.59290000 7.49940000 
53.37910000 15.37070000 7.49900000 
54.07460000 14.13560000 7.49783000 
53.35220000 12.91390000 7.49679000 
54.04690000 11.67850000 7.49465000 
53.32320000 10.45730000 7.49290000 
54.01690000 9.22161000 7.49002000 
56.23910000 17.81300000 7.49490000 
55.51790000 16.59080000 7.49481000 
56.21430000 15.35610000 7.49383000 
55.49210000 14.13430000 7.49337000 
56.18770000 12.89930000 7.49160000 
55.46430000 11.67810000 7.49062000 
56.15890000 10.44270000 7.48819000 
55.43430000 9.22202000 7.48667000 
57.65680000 17.81050000 7.48998000 
58.35400000 16.57620000 7.48911000 
57.63190000 15.35450000 7.48892000 
58.32830000 14.12000000 7.48747000 
57.60520000 12.89870000 7.48702000 
58.30060000 11.66370000 7.48505000 
57.57640000 10.44290000 7.48422000 
58.27060000 9.20752000 7.48188000 
60.49390000 17.79590000 7.48435000 
59.77170000 16.57430000 7.48404000 
60.46890000 15.34010000 7.48282000 
59.74590000 14.11890000 7.48258000 
60.44220000 12.88430000 7.48101000 
59.71820000 11.66350000 7.48065000 
60.41330000 10.42850000 7.47881000 
61.91170000 17.79340000 7.47946000 
62.60970000 16.55960000 7.47837000 
61.88670000 15.33850000 7.47793000 
62.58370000 14.10440000 7.47668000 
61.85980000 12.88360000 7.47644000 
62.55570000 11.64900000 7.47506000 
61.83080000 10.42860000 7.47484000 
64.75070000 17.77840000 7.47487000 
64.02760000 16.55750000 7.47381000 
64.72540000 15.32370000 7.47276000 
64.00150000 14.10310000 7.47224000 
64.69820000 12.86880000 7.47123000 
63.97340000 11.64850000 7.47104000 
64.66890000 10.41380000 7.47007000 
66.16870000 17.77550000 7.47098000 
66.86730000 16.54210000 7.46998000 
66.14330000 15.32170000 7.46877000 
66.84070000 14.08780000 7.46798000 
66.11600000 12.86770000 7.46745000 
66.81220000 11.63330000 7.46685000 
66.08660000 10.41350000 7.46674000 
68.28530000 16.53930000 7.46673000 
68.25860000 14.08590000 7.46472000 
68.23000000 11.63220000 7.46383000 
69.00940000 17.75950000 7.46900000 
68.98350000 15.30590000 7.46601000 
68.95560000 12.85190000 7.46436000 
68.92570000 10.39750000 7.46375000 
70.42760000 17.75580000 7.46670000 
71.12650000 16.52270000 7.46590000 
70.40150000 15.30300000 7.46351000 
71.09920000 14.06930000 7.46322000 
70.37350000 12.84990000 7.46190000 
71.06990000 11.61560000 7.46204000 
70.34350000 10.39640000 7.46153000 
73.26980000 17.73820000 7.46798000 
72.54460000 16.51880000 7.46431000 
73.24300000 15.28550000 7.46390000 
72.51720000 14.06630000 7.46151000 
73.21430000 12.83230000 7.46170000 
72.48780000 11.61330000 7.46039000 
73.18350000 10.37870000 7.46101000 
74.68800000 17.73330000 7.46729000 
75.38710000 16.50030000 7.46662000 
74.66110000 15.28130000 7.46303000 
75.35890000 14.04770000 7.46309000 
74.63230000 12.82890000 7.46077000 
75.32860000 11.59450000 7.46143000 
74.60130000 10.37600000 7.46013000 
77.53130000 17.71350000 7.47114000 
76.80530000 16.49480000 7.46647000 
77.50360000 15.26150000 7.46624000 
76.77700000 14.04300000 7.46287000 
77.47380000 12.80890000 7.46339000 
76.74660000 11.59050000 7.46118000 
77.44190000 10.35570000 7.46216000 
78.94970000 17.70660000 7.47138000 
79.64850000 16.47360000 7.47070000 
78.92180000 15.25530000 7.46650000 
79.61920000 14.02150000 7.46671000 
78.89190000 12.80340000 7.46368000 
79.58780000 11.56880000 7.46453000 
78.85990000 10.35080000 7.46244000 
81.79360000 17.68390000 7.47557000 
81.06680000 16.46590000 7.47101000 
81.76470000 15.23230000 7.47072000 
81.03740000 14.01440000 7.46719000 
81.73370000 12.78000000 7.46774000 
81.00580000 11.56230000 7.46512000 
81.70060000 10.32700000 7.46603000 
83.21190000 17.67450000 7.47530000 
83.91020000 16.44120000 7.47435000 
83.18290000 15.22350000 7.47085000 
83.87960000 13.98930000 7.47088000 
83.15180000 12.77170000 7.46818000 
83.84700000 11.53660000 7.46880000 
83.11860000 10.31920000 7.46662000 
86.05570000 17.64810000 7.47635000 
85.32850000 16.43050000 7.47345000 
86.02550000 15.19650000 7.47277000 
85.29780000 13.97910000 7.47053000 
85.99330000 12.74410000 7.47068000 
85.26500000 11.52680000 7.46886000 
85.95880000 10.29100000 7.46917000 
87.47410000 17.63560000 7.47381000 
87.44370000 15.18440000 7.47096000 
87.41130000 12.73230000 7.46953000 
87.37680000 10.27950000 7.46847000 
88.17140000 16.40160000 7.47224000 
88.13940000 13.94950000 7.47042000 
88.10540000 11.49650000 7.46946000 
90.31730000 17.60460000 7.46863000 
89.58960000 16.38750000 7.46853000 
90.28550000 15.15270000 7.46714000 
89.55750000 13.93570000 7.46750000 
90.25180000 12.69990000 7.46690000 
89.52330000 11.48300000 7.46725000 
90.21600000 10.24630000 7.46662000 
91.73560000 17.58850000 7.46305000 
92.43160000 16.35370000 7.46074000 
91.70360000 15.13690000 7.46229000 
92.39800000 13.90120000 7.46105000 
91.66970000 12.68430000 7.46284000 
92.36250000 11.44770000 7.46200000 
91.63380000 10.23100000 7.46328000 
94.57780000 17.55240000 7.45229000 
93.84970000 16.33590000 7.45441000 
94.54420000 15.10020000 7.45255000 
93.81600000 13.88360000 7.45536000 
94.50890000 12.64690000 7.45430000 
93.78030000 11.43030000 7.45704000 
94.47180000 10.19280000 7.45591000 
95.99600000 17.53270000 7.44556000 
96.69070000 16.29700000 7.44323000 
95.96220000 15.08070000 7.44610000 
96.65530000 13.84410000 7.44490000 
95.92670000 12.62770000 7.44835000 
96.61840000 11.39030000 7.44754000 
95.88950000 10.17400000 7.45058000 
98.83750000 17.49180000 7.43566000 
98.10870000 16.27580000 7.43739000 
98.80200000 15.03930000 7.43611000 
98.07320000 13.82320000 7.43911000 
98.76520000 12.58590000 7.43863000 
98.03620000 11.36980000 7.44201000 
98.72690000 10.13180000 7.44144000 
100.25600000 17.46910000 7.43180000 
100.94900000 16.23270000 7.43047000 
100.22000000 15.01690000 7.43182000 
100.91200000 13.77980000 7.43155000 
100.18300000 12.56400000 7.43408000 
100.87400000 11.32620000 7.43412000 
100.14500000 10.11040000 7.43686000 
103.09700000 17.42460000 7.42957000 
102.36700000 16.20920000 7.42858000 
103.06000000 14.97220000 7.42823000 
102.33000000 13.75670000 7.42893000 
103.02200000 12.51920000 7.42920000 
102.29200000 11.30360000 7.43090000 
102.98200000 10.06560000 7.43096000 
104.51500000 17.40040000 7.43016000 
105.20700000 16.16350000 7.42929000 
104.47800000 14.94820000 7.42784000 
105.16900000 13.71090000 7.42776000 
104.43900000 12.49560000 7.42778000 
105.13100000 11.25780000 7.42782000 
104.40000000 10.04260000 7.42862000 
106.62500000 16.13890000 7.43063000 
107.31700000 14.90170000 7.42967000 
106.58700000 13.68650000 7.42797000 
107.27900000 12.44900000 7.42738000 
106.54800000 11.23390000 7.42679000 
107.23900000 9.99598000 7.42587000 
107.35500000 17.35420000 7.43381000 
108.77300000 17.32940000 7.43576000 
109.46500000 16.09220000 7.43363000 
108.73500000 14.87690000 7.43077000 
109.42700000 13.63940000 7.42915000 
108.69700000 12.42430000 7.42732000 
109.38800000 11.18650000 7.42564000 
108.65700000 9.97167000 7.42450000 
111.61300000 17.28280000 7.43769000 
110.88300000 16.06730000 7.43463000 
111.57500000 14.82960000 7.43194000 
110.84500000 13.61430000 7.42945000 
111.53600000 12.37640000 7.42693000 
110.80600000 11.16130000 7.42490000 
111.49600000 9.92311000 7.42194000 
113.03100000 17.25810000 7.43771000 
113.72200000 16.02010000 7.43421000 
112.99200000 14.80440000 7.43193000 
113.68300000 13.56620000 7.42881000 
112.95400000 12.35070000 7.42648000 
113.64400000 11.11230000 7.42314000 
112.91400000 9.89727000 7.42064000 
115.86800000 17.21130000 7.43478000 
115.13900000 15.99510000 7.43339000 
115.82900000 14.75650000 7.43010000 
115.10100000 13.54050000 7.42823000 
115.79100000 12.30180000 7.42495000 
115.06200000 11.08610000 7.42240000 
115.75100000 9.84707000 7.41856000 
0.43712300 27.00900000 7.45605000 
1.12982000 25.77170000 7.44990000 
0.40491900 24.55350000 7.44892000 
1.09631000 23.31550000 7.44304000 
0.37022400 22.09790000 7.44248000 
1.06065000 20.85940000 7.43751000 
0.33374100 19.64230000 7.43723000 
3.27086000 26.96820000 7.44850000 
2.54752000 25.74910000 7.44671000 
3.23867000 24.51080000 7.44054000 
2.51397000 23.29240000 7.43960000 
3.20404000 22.05360000 7.43462000 
2.47828000 20.83590000 7.43448000 
3.16763000 19.59670000 7.43098000 