written by TR 
1.000000000 
48.935453300 0.000000000 0.000000000 
0.000000000 84.758691400 0.000000000 
0.000000000 0.000000000 15.000000000 
Type1 
3176
Cartesian 
0.26989400 9.81948000 2.92918000 
0.94594400 8.57301000 2.92506000 
0.20488700 7.36437000 2.92066000 
0.88044300 6.11764000 2.91552000 
0.13857600 4.90948000 2.90974000 
0.81317200 3.66228000 2.90433000 
0.07014400 2.45476000 2.89914000 
0.74381200 1.20712000 2.89617000 
0.00001415 0.00000361 2.89459000 
3.10346000 9.74278000 2.92947000 
2.36329000 8.53357000 2.92578000 
3.03846000 7.28650000 2.92230000 
2.29774000 6.07762000 2.91693000 
2.97225000 4.83025000 2.91321000 
2.23044000 3.62197000 2.90662000 
2.90418000 2.37430000 2.90435000 
2.16109000 1.16672000 2.89914000 
4.52075000 9.70381000 2.93037000 
5.19571000 8.45654000 2.92826000 
4.45570000 7.24721000 2.92429000 
5.13028000 5.99979000 2.92237000 
4.38946000 4.79087000 2.91686000 
5.06346000 3.54327000 2.91561000 
4.32141000 2.33500000 2.90968000 
4.99513000 1.08740000 2.91066000 
7.35254000 9.62732000 2.93373000 
6.61296000 8.41773000 2.93025000 
7.28785000 7.17044000 2.92965000 
6.54750000 5.96123000 2.92560000 
7.22202000 4.71386000 2.92526000 
6.48068000 3.50512000 2.92051000 
7.15485000 2.25773000 2.92111000 
6.41239000 1.04956000 2.91686000 
8.76980000 9.58877000 2.93657000 
9.44516000 8.34169000 2.93675000 
8.70512000 7.13231000 2.93268000 
9.38031000 5.88528000 2.93295000 
8.63928000 4.67638000 2.92891000 
9.31411000 3.42930000 2.92929000 
8.57211000 2.22084000 2.92561000 
9.24675000 0.97379500 2.92677000 
0.47133300 8.61137000 6.47474000 
0.53684700 6.15671000 6.48439000 
0.60414000 3.70223000 6.49565000 
0.67350300 1.24770000 6.50383000 
0.00001057 -0.00000491 6.50541000 
2.56587000 9.89667000 6.47035000 
1.88884000 8.65090000 6.47440000 
2.63085000 7.44283000 6.47763000 
1.95430000 6.19680000 6.48314000 
2.69702000 4.98916000 6.48679000 
2.02153000 3.74259000 6.49338000 
2.76506000 2.53535000 6.49567000 
2.09082000 1.28812000 6.50086000 
2.83461000 0.08095170 6.49947000 
3.98350000 9.93584000 6.46975000 
4.72574000 8.72787000 6.47174000 
4.04843000 7.48234000 6.47571000 
4.79109000 6.27462000 6.47770000 
4.11453000 5.02870000 6.48307000 
4.85783000 3.82129000 6.48448000 
4.18246000 2.57474000 6.49026000 
4.92612000 1.36743000 6.48938000 
4.25191000 0.12021600 6.49338000 
6.82121000 10.01220000 6.46636000 
6.14338000 8.76697000 6.46963000 
6.88579000 7.55905000 6.47053000 
6.20866000 6.31344000 6.47422000 
6.95149000 5.10570000 6.47494000 
6.27531000 3.85961000 6.47934000 
7.01858000 2.65202000 6.47903000 
6.34349000 1.40533000 6.48308000 
7.08670000 0.19761200 6.48072000 
8.23890000 10.05110000 6.46313000 
8.98092000 8.84293000 6.46348000 
8.30337000 7.59752000 6.46701000 
9.04559000 6.38937000 6.46736000 
8.36899000 5.14346000 6.47082000 
9.11165000 3.93546000 6.47097000 
8.43598000 2.68905000 6.47423000 
9.17893000 1.48111000 6.47333000 
8.50402000 0.23429600 6.47571000 
11.60180000 9.51385000 2.94650000 
10.86250000 8.30402000 2.94089000 
11.53830000 7.05730000 2.94156000 
10.79760000 5.84819000 2.93658000 
11.47320000 4.60147000 2.93692000 
10.73140000 3.39286000 2.93271000 
11.40650000 2.14605000 2.93316000 
10.66410000 0.93776800 2.93028000 
13.01910000 9.47722000 2.95231000 
13.69540000 8.23071000 2.95329000 
12.95560000 7.02101000 2.94656000 
13.63170000 5.77457000 2.94702000 
12.89050000 4.56563000 2.94104000 
13.56610000 3.31907000 2.94122000 
12.82390000 2.11061000 2.93668000 
13.49900000 0.86388300 2.93749000 
15.85110000 9.40653000 2.96714000 
15.11270000 8.19593000 2.95952000 
15.78930000 6.94968000 2.96025000 
15.04900000 5.74003000 2.95267000 
15.72510000 4.49370000 2.95286000 
14.98340000 3.28479000 2.94618000 
15.65890000 2.03825000 2.94669000 
14.91630000 0.82975300 2.94205000 
17.26840000 9.37356000 2.97292000 
17.94550000 8.12753000 2.97400000 
17.20650000 6.91698000 2.96638000 
17.88310000 5.67089000 2.96670000 
17.14240000 4.46124000 2.95897000 
17.81820000 3.21493000 2.95916000 
17.07620000 2.00597000 2.95266000 
17.75140000 0.75943100 2.95407000 
19.42290000 10.55350000 2.98338000 
19.36270000 8.09655000 2.97865000 
19.30040000 5.64038000 2.97216000 
19.23560000 3.18478000 2.96513000 
19.16870000 0.72944200 2.96042000 
11.07690000 10.12600000 6.45368000 
10.39850000 8.88104000 6.45857000 
11.14020000 7.67251000 6.45884000 
10.46310000 6.42684000 6.46303000 
11.20510000 5.21840000 6.46350000 
10.52910000 3.97214000 6.46703000 
11.27150000 2.76388000 6.46708000 
10.59630000 1.51723000 6.46963000 
11.33900000 0.30905600 6.46840000 
12.49460000 10.16320000 6.44678000 
13.23580000 8.95437000 6.44720000 
12.55770000 7.70930000 6.45291000 
13.29910000 6.50050000 6.45365000 
12.62250000 5.25460000 6.45868000 
13.36450000 4.04600000 6.45928000 
12.68890000 2.79951000 6.46317000 
13.43140000 1.59114000 6.46269000 
12.75630000 0.34439100 6.46497000 
15.33300000 10.23390000 6.43354000 
14.65340000 8.98981000 6.43975000 
15.39450000 7.78070000 6.44078000 
14.71660000 6.53553000 6.44709000 
15.45820000 5.32662000 6.44808000 
14.78180000 4.08059000 6.45375000 
15.52410000 2.87194000 6.45381000 
14.84870000 1.62538000 6.45792000 
15.59140000 0.41694100 6.45591000 
16.75080000 10.26780000 6.42603000 
17.49140000 9.05833000 6.42741000 
16.81210000 7.81406000 6.43331000 
17.55330000 6.60480000 6.43467000 
16.87560000 5.35953000 6.44104000 
17.61750000 4.15055000 6.44172000 
16.94140000 2.90447000 6.44736000 
17.68390000 1.69574000 6.44620000 
17.00870000 0.44923000 6.44987000 
18.90910000 9.09013000 6.42064000 
18.97080000 6.63593000 6.42757000 
19.03490000 4.18110000 6.43468000 
19.10130000 1.72588000 6.43948000 
20.10080000 9.30779000 2.98478000 
20.04010000 6.85079000 2.97914000 
19.97680000 4.39439000 2.97197000 
19.91110000 1.93850000 2.96550000 
22.25570000 10.48920000 2.99086000 
21.51800000 9.27777000 2.98669000 
22.19640000 8.03252000 2.98730000 
21.45730000 6.82166000 2.98216000 
22.13470000 5.57612000 2.98159000 
21.39420000 4.36597000 2.97595000 
22.07040000 3.12004000 2.97508000 
21.32850000 1.91054000 2.97027000 
22.00390000 0.66432900 2.97075000 
23.67320000 10.45920000 2.99016000 
24.35270000 9.21467000 2.99065000 
23.61370000 8.00378000 2.98730000 
24.29220000 6.75884000 2.98631000 
23.55210000 5.54847000 2.98241000 
24.22920000 4.30301000 2.98036000 
23.48770000 3.09321000 2.97674000 
24.16360000 1.84726000 2.97518000 
23.42130000 0.63788200 2.97326000 
26.50940000 10.39600000 2.99054000 
25.77020000 9.18539000 2.98821000 
26.44980000 7.94110000 2.98662000 
25.70970000 6.73086000 2.98404000 
26.38790000 5.48591000 2.98092000 
25.64660000 4.27610000 2.97852000 
26.32320000 3.03047000 2.97507000 
25.58100000 1.82105000 2.97401000 
26.25660000 0.57496100 2.97200000 
27.92710000 10.36560000 2.98654000 
28.60770000 9.12191000 2.98406000 
27.86740000 7.91194000 2.98210000 
28.54650000 6.66748000 2.97797000 
27.80530000 5.45784000 2.97624000 
28.48270000 4.21253000 2.97128000 
27.74070000 3.00323000 2.97063000 
28.41650000 1.75723000 2.96650000 
27.67400000 0.54812900 2.96814000 
19.58970000 10.33370000 6.41688000 
19.64970000 7.88043000 6.42237000 
19.71210000 5.42652000 6.42896000 
19.77710000 2.97199000 6.43483000 
19.84390000 0.51695500 6.43720000 
21.00740000 10.36470000 6.41187000 
21.74720000 9.15443000 6.41393000 
21.06730000 7.91033000 6.41667000 
21.80790000 6.70038000 6.41876000 
21.12960000 5.45550000 6.42295000 
21.87110000 4.24591000 6.42458000 
21.19450000 3.00026000 6.42895000 
21.93680000 1.79100000 6.42898000 
21.26130000 0.54485100 6.43178000 
23.84480000 10.42820000 6.40996000 
23.16470000 9.18398000 6.41023000 
23.90420000 7.97338000 6.41294000 
23.22530000 6.72868000 6.41485000 
23.96590000 5.51852000 6.41783000 
23.28850000 4.27318000 6.42082000 
24.03020000 3.06351000 6.42326000 
23.35420000 1.81760000 6.42573000 
24.09660000 0.60825400 6.42630000 
25.26230000 10.45810000 6.40807000 
26.00040000 9.24686000 6.41143000 
25.32160000 8.00195000 6.41132000 
26.06100000 6.79121000 6.41545000 
25.38320000 5.54590000 6.41669000 
26.12400000 4.33578000 6.42119000 
25.44760000 3.09000000 6.42280000 
26.18950000 1.88044000 6.42638000 
25.51410000 0.63431900 6.42665000 
28.09620000 10.52170000 6.41309000 
27.41780000 9.27637000 6.41181000 
28.15600000 8.06514000 6.41696000 
27.47830000 6.81962000 6.41676000 
28.21800000 5.60911000 6.42280000 
27.54130000 4.36329000 6.42341000 
28.28260000 3.15353000 6.42938000 
27.60690000 1.90737000 6.42947000 
28.34920000 0.69814800 6.43379000 
30.76580000 10.30080000 2.97979000 
30.02530000 9.09108000 2.97816000 
30.70510000 7.84700000 2.97309000 
29.96400000 6.63755000 2.97155000 
30.64190000 5.39249000 2.96558000 
29.90010000 4.18334000 2.96479000 
30.57640000 2.93745000 2.95921000 
29.83390000 1.72855000 2.96030000 
30.50920000 0.48216900 2.95660000 
32.18350000 10.26810000 2.97292000 
32.86360000 9.02421000 2.96714000 
32.12260000 7.81493000 2.96583000 
32.80090000 6.57003000 2.95944000 
32.05940000 5.36098000 2.95836000 
32.73600000 4.11516000 2.95224000 
31.99380000 2.90639000 2.95230000 
32.66930000 1.65996000 2.94768000 
31.92660000 0.45138400 2.95006000 
35.02220000 10.19900000 2.96025000 
34.28120000 8.98999000 2.95952000 
34.95980000 7.74518000 2.95329000 
34.21840000 6.53623000 2.95231000 
34.89530000 5.29049000 2.94650000 
34.15340000 4.08176000 2.94584000 
34.82910000 2.83536000 2.94119000 
34.08660000 1.62689000 2.94190000 
34.76170000 0.38018800 2.93910000 
36.43990000 10.16280000 2.95267000 
37.11870000 8.91812000 2.94702000 
36.37730000 7.70938000 2.94656000 
37.05450000 6.46379000 2.94156000 
36.31270000 5.25515000 2.94089000 
36.98880000 4.00889000 2.93675000 
36.24650000 2.80048000 2.93657000 
36.92170000 1.55381000 2.93373000 
36.17900000 0.34556000 2.93499000 
38.53630000 8.88067000 2.94104000 
38.47200000 6.42691000 2.93658000 
39.14850000 5.18094000 2.93295000 
38.40620000 3.97269000 2.93268000 
39.08180000 2.72623000 2.92966000 
38.33900000 1.51811000 2.93025000 
39.01400000 0.27133700 2.92826000 
29.51350000 10.55250000 6.41519000 
30.25070000 9.34093000 6.42125000 
29.57320000 8.09511000 6.42022000 
30.31210000 6.88435000 6.42726000 
29.63530000 5.63840000 6.42708000 
30.37580000 4.42850000 6.43449000 
29.69990000 3.18230000 6.43446000 
30.44190000 1.97311000 6.44086000 
29.76660000 0.72667200 6.43950000 
31.66790000 9.37271000 6.42603000 
32.40610000 8.16183000 6.43354000 
31.72930000 6.91571000 6.43282000 
32.46930000 5.70576000 6.44067000 
31.79310000 4.45952000 6.44052000 
32.53460000 3.25038000 6.44773000 
31.85920000 2.00390000 6.44713000 
32.60170000 0.79523500 6.45232000 
34.49990000 9.44166000 6.44078000 
33.82340000 8.19531000 6.43974000 
34.56290000 6.98534000 6.44720000 
33.88660000 5.73902000 6.44678000 
34.62770000 4.52990000 6.45368000 
33.95200000 3.28342000 6.45350000 
34.69420000 2.07485000 6.45889000 
34.01900000 0.82818000 6.45788000 
35.91720000 9.47717000 6.44709000 
36.65630000 8.26713000 6.45364000 
35.98020000 7.02060000 6.45291000 
36.72080000 5.81139000 6.45884000 
36.04500000 4.56484000 6.45857000 
36.78680000 3.35622000 6.46348000 
36.11150000 2.10953000 6.46312000 
36.85400000 0.90122500 6.46636000 
38.74930000 9.55095000 6.45928000 
38.07360000 8.30407000 6.45868000 
38.81370000 7.09466000 6.46350000 
38.13810000 5.84786000 6.46303000 
38.87930000 4.63901000 6.46736000 
38.20410000 3.39215000 6.46701000 
38.94620000 2.18373000 6.47053000 
38.27140000 0.93683000 6.46963000 
39.27800000 10.08910000 2.94122000 
39.21390000 7.63530000 2.93692000 
40.69570000 10.05050000 2.93668000 
41.37370000 8.80531000 2.93316000 
40.63150000 7.59724000 2.93272000 
41.30850000 6.35160000 2.92930000 
40.56600000 5.14364000 2.92891000 
41.24210000 3.89751000 2.92526000 
40.49910000 2.68967000 2.92560000 
41.17440000 1.44304000 2.92237000 
40.43140000 0.23513600 2.92429000 
43.53360000 9.97439000 2.93160000 
42.79130000 8.76645000 2.93028000 
43.46880000 7.52101000 2.92678000 
42.72610000 6.31324000 2.92561000 
43.40280000 5.06741000 2.92111000 
42.65960000 3.85986000 2.92051000 
43.33520000 2.61344000 2.91561000 
42.59170000 1.40594000 2.91686000 
43.26620000 0.15889900 2.91321000 
44.95130000 9.93525000 2.93037000 
45.62870000 8.68973000 2.92667000 
44.88640000 7.48184000 2.92429000 
45.56330000 6.23606000 2.91928000 
44.82030000 5.02851000 2.91686000 
45.49620000 3.78220000 2.91066000 
44.75260000 2.57494000 2.90969000 
45.42720000 1.32793000 2.90435000 
44.68350000 0.12061400 2.90662000 
47.78790000 9.85863000 2.92903000 
47.04630000 8.65029000 2.92577000 
47.72290000 7.40426000 2.92097000 
46.98080000 6.19628000 2.91692000 
47.65660000 4.94986000 2.91062000 
46.91360000 3.74237000 2.90662000 
47.58830000 2.49532000 2.90053000 
46.84450000 1.28819000 2.89914000 
47.51820000 0.04059320 2.89617000 
40.16660000 9.58911000 6.46317000 
40.90610000 8.37947000 6.46708000 
40.23100000 7.13234000 6.46703000 
40.97140000 5.92317000 6.47097000 
40.29660000 4.67601000 6.47082000 
41.03810000 3.46731000 6.47494000 
40.36350000 2.22013000 6.47422000 
41.10590000 1.01188000 6.47770000 
42.99830000 9.66532000 6.46840000 
42.32340000 8.41801000 6.46963000 
43.06330000 7.20861000 6.47333000 
42.38870000 5.96123000 6.47423000 
43.12950000 4.75225000 6.47903000 
42.45530000 3.50476000 6.47934000 
43.19720000 2.29634000 6.48448000 
42.52320000 1.04892000 6.48307000 
44.41560000 9.70421000 6.46972000 
45.15540000 8.49481000 6.47323000 
44.48050000 7.24753000 6.47571000 
45.22100000 6.03844000 6.48072000 
44.54670000 4.79095000 6.48308000 
45.28820000 3.58241000 6.48938000 
44.61440000 2.33474000 6.49026000 
45.35730000 1.12692000 6.49567000 
47.24830000 9.78090000 6.47071000 
46.57270000 8.53408000 6.47439000 
47.31330000 7.32514000 6.47889000 
46.63820000 6.07807000 6.48314000 
47.37960000 4.86960000 6.48934000 
46.70540000 3.62214000 6.49338000 
47.44810000 2.41436000 6.49947000 
46.77450000 1.16663000 6.50086000 
48.66570000 9.82001000 6.47109000 
48.73070000 7.36498000 6.47949000 
48.79690000 4.90993000 6.49032000 
48.86530000 2.45491000 6.50086000 
1.25293000 20.85200000 2.97875000 
0.51678600 19.64050000 2.97397000 
1.19636000 18.39580000 2.96646000 
0.45872100 17.18510000 2.96025000 
1.13683000 15.93970000 2.95280000 
0.39762600 14.72990000 2.94709000 
1.07453000 13.48390000 2.94116000 
0.33428600 12.27470000 2.93697000 
1.01058000 11.02840000 2.93264000 
2.67057000 20.81580000 2.97978000 
3.34970000 19.57050000 2.97274000 
2.61391000 18.35880000 2.96718000 
3.29177000 17.11300000 2.95932000 
2.55431000 15.90220000 2.95322000 
3.23090000 14.65590000 2.94632000 
2.49196000 13.44590000 2.94143000 
3.16776000 12.19920000 2.93652000 
2.42798000 10.98970000 2.93299000 
5.50111000 20.74640000 2.97720000 
4.76712000 19.53370000 2.97292000 
5.44464000 18.28740000 2.96551000 
4.70913000 17.07550000 2.95948000 
5.38552000 15.82870000 2.95227000 
4.64823000 14.61780000 2.94650000 
5.32377000 13.37070000 2.94111000 
4.58508000 12.16060000 2.93688000 
5.26024000 10.91340000 2.93364000 
6.91837000 20.70950000 2.97659000 
7.59541000 19.46270000 2.97062000 
6.86184000 18.24960000 2.96554000 
7.53805000 17.00250000 2.95914000 
6.80272000 15.79040000 2.95287000 
7.47821000 14.54310000 2.94768000 
6.74101000 13.33210000 2.94212000 
7.41615000 12.08470000 2.93910000 
6.67749000 10.87460000 2.93499000 
9.74446000 20.63880000 2.97362000 
9.01245000 19.42480000 2.97053000 
9.68850000 18.17730000 2.96621000 
8.95512000 16.96400000 2.96050000 
9.63069000 15.71650000 2.95660000 
8.89535000 14.50440000 2.95006000 
9.57068000 13.25700000 2.94768000 
8.83336000 12.04600000 2.94190000 
9.50868000 10.79880000 2.94119000 
0.16412200 20.88580000 6.42021000 
0.22074200 18.43070000 6.43286000 
0.28032700 15.97590000 6.44671000 
0.34268100 13.52110000 6.45844000 
0.40666500 11.06620000 6.46705000 
1.58197000 20.92220000 6.42184000 
2.31952000 19.71150000 6.42691000 
1.63849000 18.46780000 6.43417000 
2.37746000 17.25790000 6.44056000 
1.69799000 16.01340000 6.44769000 
2.43837000 14.80430000 6.45350000 
1.76028000 13.55920000 6.45911000 
2.50155000 12.35060000 6.46325000 
1.82422000 11.10500000 6.46732000 
4.42030000 20.99110000 6.42203000 
3.73747000 19.74860000 6.42845000 
4.47674000 18.53890000 6.43442000 
3.79531000 17.29560000 6.44164000 
4.53590000 16.08670000 6.44776000 
3.85612000 14.84250000 6.45416000 
4.59769000 13.63410000 6.45881000 
3.91923000 12.38920000 6.46343000 
4.66125000 11.18110000 6.46627000 
5.83846000 21.02820000 6.42376000 
6.57825000 19.81890000 6.42872000 
5.89481000 18.57680000 6.43522000 
6.63564000 17.36810000 6.44079000 
5.95383000 16.12510000 6.44770000 
6.69554000 14.91690000 6.45232000 
6.01550000 13.67290000 6.45810000 
6.75764000 12.46490000 6.46090000 
6.07897000 11.22020000 6.46501000 
8.68166000 21.09800000 6.42493000 
7.99655000 19.85690000 6.42937000 
8.73766000 18.64850000 6.43350000 
8.05380000 17.40670000 6.43970000 
8.79556000 16.19870000 6.44340000 
8.11354000 14.95580000 6.44994000 
8.85560000 13.74790000 6.45232000 
8.17546000 12.50390000 6.45788000 
8.91753000 11.29590000 6.45889000 
11.16140000 20.60070000 2.97335000 
11.83740000 19.35300000 2.97200000 
11.10540000 18.13890000 2.96814000 
11.78130000 16.89130000 2.96650000 
11.04770000 15.67810000 2.96030000 
11.72340000 14.43070000 2.95921000 
10.98780000 13.21870000 2.95230000 
11.66360000 11.97150000 2.95224000 
10.92590000 10.76070000 2.94584000 
13.98570000 20.52940000 2.97517000 
13.25430000 19.31500000 2.97401000 
13.93060000 18.06750000 2.97507000 
13.19830000 16.85360000 2.97063000 
13.87460000 15.60640000 2.97128000 
13.14060000 14.39340000 2.96479000 
13.81680000 13.14640000 2.96558000 
13.08080000 11.93460000 2.95836000 
13.75710000 10.68790000 2.95944000 
15.40270000 20.49180000 2.97674000 
16.07960000 19.24470000 2.98036000 
15.34760000 18.03070000 2.97852000 
16.02480000 16.78380000 2.98092000 
15.29170000 15.57030000 2.97624000 
15.96870000 14.32370000 2.97797000 
15.23400000 13.11100000 2.97155000 
15.91090000 11.86450000 2.97309000 
15.17440000 10.65290000 2.96583000 
18.22940000 20.42210000 2.98159000 
17.49680000 19.20840000 2.98240000 
18.17490000 17.96220000 2.98631000 
17.44200000 16.74870000 2.98404000 
18.12000000 15.50260000 2.98662000 
17.38600000 14.28950000 2.98210000 
18.06370000 13.04340000 2.98406000 
17.32820000 11.83110000 2.97816000 
18.00560000 10.58500000 2.97979000 
19.53740000 15.46900000 2.98821000 
19.48110000 13.01100000 2.98654000 
10.10010000 21.13600000 6.42599000 
10.84150000 19.92800000 6.42800000 
10.15610000 18.68700000 6.43186000 
10.89770000 17.47910000 6.43379000 
10.21380000 16.23740000 6.43950000 
10.95560000 15.02940000 6.44086000 
10.27360000 13.78650000 6.44713000 
11.01530000 12.57830000 6.44773000 
10.33530000 11.33440000 6.45350000 
12.26010000 19.96640000 6.42665000 
13.00150000 18.75830000 6.42638000 
12.31610000 17.51740000 6.42947000 
13.05750000 16.30920000 6.42938000 
12.37370000 15.06730000 6.43446000 
13.11500000 13.85890000 6.43450000 
12.43320000 12.61590000 6.44052000 
13.17440000 11.40720000 6.44068000 
15.10570000 20.03690000 6.42326000 
14.42000000 18.79610000 6.42280000 
15.16070000 17.58740000 6.42119000 
14.47580000 16.34620000 6.42341000 
15.21640000 15.13730000 6.42280000 
14.53310000 13.89530000 6.42708000 
15.27370000 12.68620000 6.42726000 
14.59230000 11.44310000 6.43282000 
16.52420000 20.07430000 6.42082000 
17.26400000 18.86500000 6.41783000 
16.57900000 17.62390000 6.41669000 
17.31860000 16.41430000 6.41545000 
16.63460000 15.17270000 6.41676000 
17.37440000 13.96300000 6.41696000 
16.69170000 12.72070000 6.42022000 
17.43190000 11.51100000 6.42125000 
19.36650000 20.14300000 6.41875000 
18.68230000 18.90130000 6.41484000 
19.42080000 17.69100000 6.41294000 
18.73680000 16.44920000 6.41132000 
19.47560000 15.23890000 6.41143000 
18.79240000 13.99670000 6.41181000 
19.53170000 12.78650000 6.41309000 
18.84980000 11.54370000 6.41519000 
19.64680000 20.38590000 2.98216000 
20.32590000 19.14050000 2.98730000 
19.59240000 17.92740000 2.98730000 
20.27150000 16.68200000 2.99065000 
20.21620000 14.22350000 2.99054000 
20.15940000 11.76540000 2.98845000 
22.47810000 20.31770000 2.98477000 
21.74350000 19.10530000 2.98669000 
22.42380000 17.86070000 2.99086000 
21.68910000 16.64820000 2.99016000 
22.36920000 15.40350000 2.99292000 
21.63370000 14.19120000 2.99052000 
22.31330000 12.94630000 2.99262000 
21.57680000 11.73430000 2.98928000 
23.89590000 20.28190000 2.98338000 
24.57720000 19.03810000 2.98845000 
23.84160000 17.82620000 2.98928000 
24.52290000 16.58240000 2.99262000 
23.78690000 15.37050000 2.99137000 
24.46770000 14.12640000 2.99363000 
23.73080000 12.91480000 2.99137000 
24.41110000 11.67050000 2.99292000 
26.73180000 20.21400000 2.98406000 
25.99510000 19.00280000 2.98654000 
26.67760000 17.75980000 2.99054000 
25.94080000 16.54840000 2.99052000 
26.62300000 15.30530000 2.99292000 
25.88550000 14.09410000 2.99137000 
26.56700000 12.85070000 2.99262000 
25.82870000 11.63980000 2.99052000 
28.14980000 20.17790000 2.98210000 
28.83340000 18.93570000 2.98662000 
28.09560000 17.72490000 2.98821000 
28.77900000 16.48270000 2.99065000 
28.04090000 15.27190000 2.99016000 
28.72360000 14.02940000 2.99086000 
27.98490000 12.81890000 2.98928000 
28.66660000 11.57580000 2.98845000 
20.78460000 20.17940000 6.41666000 
21.52210000 18.96850000 6.41392000 
20.83890000 17.72610000 6.41022000 
21.57640000 16.51510000 6.40996000 
20.89360000 15.27250000 6.40807000 
21.63170000 14.06170000 6.40938000 
20.94960000 12.81870000 6.40894000 
21.68850000 11.60820000 6.41084000 
23.62220000 20.24730000 6.41688000 
22.94010000 19.00400000 6.41187000 
23.67640000 17.79240000 6.41084000 
22.99440000 16.54920000 6.40760000 
23.73110000 15.33760000 6.40864000 
23.04950000 14.09420000 6.40664000 
23.78710000 12.88290000 6.40864000 
23.10630000 11.63910000 6.40760000 
25.04000000 20.28310000 6.41519000 
25.77530000 19.07110000 6.41309000 
25.09430000 17.82710000 6.40894000 
25.82970000 16.61490000 6.40938000 
25.14890000 15.37080000 6.40664000 
25.88500000 14.15880000 6.40864000 
25.20480000 12.91440000 6.40664000 
25.94190000 11.70270000 6.40938000 
27.87290000 20.35120000 6.41696000 
27.19300000 19.10630000 6.41181000 
27.92720000 17.89360000 6.41143000 
27.24740000 16.64870000 6.40807000 
27.98200000 15.43610000 6.40996000 
27.30260000 14.19100000 6.40760000 
28.03820000 12.97870000 6.41084000 
27.35930000 11.73350000 6.40894000 
29.29040000 20.38700000 6.41676000 
29.34480000 17.92820000 6.41132000 
30.99060000 20.10960000 2.98092000 
30.25160000 18.89980000 2.98404000 
30.93600000 17.65830000 2.98631000 
30.19710000 16.44820000 2.98730000 
30.88090000 15.20640000 2.98730000 
30.14170000 13.99630000 2.98669000 
30.82430000 12.75390000 2.98477000 
30.08450000 11.54400000 2.98338000 
32.40890000 20.07260000 2.97852000 
33.09430000 18.83160000 2.98036000 
32.35430000 17.62240000 2.98241000 
33.03910000 16.38120000 2.98159000 
32.29910000 15.17180000 2.98216000 
32.98250000 13.92980000 2.97914000 
32.24230000 12.72030000 2.97865000 
32.92410000 11.47750000 2.97400000 
35.25390000 20.00270000 2.97518000 
34.51280000 18.79440000 2.97674000 
35.19820000 17.55350000 2.97508000 
34.45740000 16.34490000 2.97595000 
35.14140000 15.10330000 2.97197000 
34.40060000 13.89440000 2.97216000 
35.08280000 12.65180000 2.96670000 
34.34190000 11.44280000 2.96638000 
37.41390000 21.17240000 2.97370000 
36.67240000 19.96450000 2.97326000 
37.35820000 18.72370000 2.97075000 
36.61670000 17.51570000 2.97027000 
37.30110000 16.27430000 2.96550000 
36.55960000 15.06610000 2.96513000 
37.24210000 13.82360000 2.95916000 
36.50070000 12.61510000 2.95897000 
37.18130000 11.37150000 2.95286000 
38.83240000 21.13410000 2.97427000 
38.77670000 18.68530000 2.96822000 
38.71940000 16.23590000 2.96042000 
38.66020000 13.78540000 2.95266000 
38.59900000 11.33360000 2.94618000 
30.02360000 19.17380000 6.41545000 
30.07820000 16.71490000 6.41294000 
29.39950000 15.46920000 6.41022000 
30.13390000 14.25640000 6.41392000 
29.45560000 13.01060000 6.41187000 
30.19130000 11.79830000 6.41688000 
32.11860000 20.45610000 6.42119000 
31.44100000 19.20960000 6.41669000 
32.17340000 17.99580000 6.41783000 
31.49560000 16.74940000 6.41484000 
32.22880000 15.53600000 6.41875000 
31.55130000 14.28960000 6.41666000 
32.28590000 13.07690000 6.42237000 
31.60860000 11.83070000 6.42064000 
32.34500000 10.61890000 6.42741000 
33.53570000 20.49320000 6.42280000 
34.26730000 19.27900000 6.42326000 
33.59050000 18.03180000 6.42082000 
34.32280000 16.81800000 6.42458000 
33.64610000 15.57100000 6.42295000 
34.37990000 14.35790000 6.42896000 
33.70320000 13.11120000 6.42756000 
34.43890000 11.89920000 6.43467000 
33.76230000 10.65260000 6.43331000 
36.36040000 20.56420000 6.42630000 
35.68430000 19.31650000 6.42573000 
36.41600000 18.10230000 6.42898000 
35.73990000 16.85480000 6.42895000 
36.47310000 15.64140000 6.43483000 
35.79710000 14.39420000 6.43467000 
36.53220000 13.18190000 6.44171000 
35.85620000 11.93490000 6.44104000 
36.59340000 10.72390000 6.44808000 
37.77730000 20.60230000 6.42674000 
38.50890000 19.38810000 6.42925000 
37.83290000 18.14040000 6.43178000 
38.56580000 16.92690000 6.43720000 
37.89020000 15.67930000 6.43948000 
38.62490000 14.46680000 6.44620000 
37.94940000 13.21950000 6.44736000 
38.68630000 12.00820000 6.45381000 
38.01070000 10.76110000 6.45375000 
39.51810000 19.89330000 2.97102000 
39.46120000 17.44380000 2.96280000 
39.40210000 14.99340000 2.95407000 
39.34090000 12.54180000 2.94669000 
41.67700000 21.06390000 2.97542000 
40.93650000 19.85510000 2.97105000 
41.62080000 18.61340000 2.96518000 
40.87950000 17.40520000 2.96052000 
41.56210000 16.16260000 2.95380000 
40.82020000 14.95460000 2.95013000 
41.50090000 13.71100000 2.94409000 
40.75870000 12.50300000 2.94205000 
41.43780000 11.25850000 2.93749000 
43.09530000 21.02650000 2.97705000 
43.77890000 19.78450000 2.97104000 
43.03890000 18.57530000 2.96532000 
43.72120000 17.33250000 2.95828000 
42.98010000 16.12390000 2.95264000 
43.66060000 14.88020000 2.94619000 
42.91870000 13.67210000 2.94208000 
43.59780000 12.42750000 2.93731000 
42.85560000 11.21950000 2.93503000 
45.93530000 20.95740000 2.97763000 
45.19700000 19.74710000 2.97243000 
45.87880000 18.50400000 2.96533000 
45.13910000 17.29450000 2.95896000 
45.81940000 16.05050000 2.95192000 
45.07850000 14.84170000 2.94624000 
45.75720000 13.59700000 2.94071000 
45.01550000 12.38860000 2.93683000 
45.69330000 11.14340000 2.93292000 
47.35320000 20.92080000 2.97936000 
48.03450000 19.67720000 2.97259000 
47.29660000 18.46670000 2.96669000 
47.97650000 17.22240000 2.95922000 
47.23710000 16.01270000 2.95291000 
47.91550000 14.76760000 2.94635000 
47.17480000 13.55870000 2.94132000 
47.85220000 12.31310000 2.93650000 
47.11090000 11.10450000 2.93297000 
40.60230000 20.67350000 6.42492000 
39.92580000 19.42630000 6.42973000 
40.65870000 18.21280000 6.43450000 
39.98280000 16.96530000 6.43958000 
40.71750000 15.75290000 6.44593000 
40.04210000 14.50540000 6.44987000 
40.77870000 13.29400000 6.45591000 
40.10350000 12.04670000 6.45792000 
40.84180000 10.83630000 6.46269000 
42.01940000 20.71080000 6.42405000 
42.75270000 19.49760000 6.42803000 
42.07580000 18.25090000 6.43487000 
42.81060000 17.03850000 6.44084000 
42.13460000 15.79140000 6.44734000 
42.87120000 14.58010000 6.45331000 
42.19590000 13.33280000 6.45795000 
42.93410000 12.12240000 6.46251000 
42.25910000 10.87510000 6.46497000 
44.84840000 20.78060000 6.42086000 
44.17000000 19.53480000 6.42784000 
44.90500000 18.32270000 6.43330000 
44.22780000 17.07640000 6.44103000 
44.96460000 15.86520000 6.44714000 
44.28850000 14.61840000 6.45382000 
45.02680000 13.40810000 6.45878000 
44.35140000 12.16110000 6.46332000 
45.09070000 10.95140000 6.46684000 
46.26590000 20.81690000 6.42135000 
47.00140000 19.60500000 6.42600000 
46.32250000 18.35980000 6.43362000 
47.05940000 17.14870000 6.43975000 
46.38200000 15.90290000 6.44733000 
47.12050000 14.69270000 6.45298000 
46.44420000 13.44630000 6.45896000 
47.18390000 12.23680000 6.46308000 
46.50810000 10.99010000 6.46728000 
48.41900000 19.64160000 6.42708000 
48.47700000 17.18590000 6.44048000 
48.53800000 14.73040000 6.45344000 
48.60130000 12.27510000 6.46342000 
1.47414000 30.67660000 2.99062000 
0.73704600 29.46500000 2.99336000 
1.41726000 28.22060000 2.99136000 
0.68116000 27.00860000 2.99336000 
1.36193000 25.76440000 2.99062000 
0.62655000 24.55230000 2.99106000 
1.30759000 23.30820000 2.98691000 
0.57226200 22.09620000 2.98481000 
2.89158000 30.64580000 2.99106000 
3.57052000 29.40060000 2.98916000 
2.83485000 28.18830000 2.99240000 
3.51431000 26.94330000 2.99004000 
2.77962000 25.73060000 2.99193000 
3.45951000 24.48580000 2.98857000 
2.72529000 23.27310000 2.98819000 
3.40515000 22.02820000 2.98304000 
5.72361000 30.58100000 2.98312000 
4.98792000 29.36870000 2.98813000 
5.66619000 28.12300000 2.98608000 
4.93182000 26.91010000 2.98978000 
5.61050000 25.66440000 2.98706000 
4.87705000 24.45120000 2.98868000 
5.55590000 23.20550000 2.98455000 
4.82265000 21.99230000 2.98325000 
7.87728000 31.76050000 2.97259000 
7.14090000 30.54860000 2.97937000 
7.81821000 29.30240000 2.97763000 
7.08354000 28.08970000 2.98334000 
7.76111000 26.84340000 2.98125000 
7.02787000 25.63000000 2.98516000 
7.70563000 24.38360000 2.98217000 
6.97323000 23.16980000 2.98331000 
7.65086000 21.92320000 2.97881000 
9.29454000 31.72670000 2.96669000 
9.23547000 29.26820000 2.97244000 
9.17834000 26.80830000 2.97705000 
9.12279000 24.34750000 2.97918000 
9.06794000 21.88610000 2.97720000 
0.00000746 28.25290000 6.40637000 
0.05517620 25.79700000 6.40738000 
0.10945400 23.34120000 6.41155000 
1.36096000 30.73960000 6.40948000 
2.09931000 29.52860000 6.40739000 
1.41778000 28.28530000 6.40863000 
2.15523000 27.07400000 6.40708000 
1.47306000 25.83090000 6.40949000 
2.20984000 24.61950000 6.40946000 
1.52735000 23.37660000 6.41346000 
2.26410000 22.16530000 6.41594000 
4.19892000 30.80350000 6.41155000 