written by TR 
1.000000000 
134.004005000 0.000000000 0.000000000 
67.002002500 116.050872539 0.000000000 
0.000000000 0.000000000 15.000000000 
Type1 
11908
Cartesian 
0.73222000 1.21400000 2.89301000 
-0.00000871 0.00000296 2.89213000 
2.92664000 4.85735000 2.90392000 
2.19598000 3.64243000 2.89932000 
2.88139000 2.40134000 2.89786000 
2.14968000 1.18701000 2.89470000 
5.11546000 8.50410000 2.91783000 
4.38730000 7.28773000 2.91355000 
5.07347000 6.04689000 2.91161000 
4.34403000 4.83121000 2.90678000 
5.02957000 3.59015000 2.90570000 
4.29881000 2.37519000 2.90138000 
4.98416000 1.13412000 2.90205000 
6.53279000 8.47900000 2.92017000 
7.21917000 7.23823000 2.91905000 
6.49081000 6.02185000 2.91479000 
7.17662000 4.78089000 2.91407000 
6.44694000 3.56522000 2.90977000 
7.13251000 2.32426000 2.91023000 
6.40160000 1.10928000 2.90674000 
9.36408000 8.43109000 2.92549000 
8.63649000 7.21422000 2.92189000 
9.32273000 5.97347000 2.92133000 
8.59397000 4.75720000 2.91765000 
9.27991000 3.51642000 2.91782000 
8.54991000 2.30082000 2.91455000 
9.23596000 1.06024000 2.91592000 
0.00000331 0.00000272 6.50787000 
2.78850000 2.50893000 6.50214000 
2.10273000 1.26813000 6.50529000 
2.83495000 0.05410070 6.50447000 
4.84895000 6.22891000 6.48850000 
4.16088000 4.98944000 6.49323000 
4.89281000 3.77529000 6.49434000 
4.20604000 2.53511000 6.49860000 
4.93819000 1.32101000 6.49795000 
4.25242000 0.08025760 6.50068000 
6.22482000 8.70747000 6.48027000 
6.95585000 7.49286000 6.48157000 
6.26666000 6.25409000 6.48539000 
6.99832000 5.03977000 6.48607000 
6.31043000 3.80029000 6.49018000 
7.04240000 2.58604000 6.48972000 
6.35572000 1.34587000 6.49321000 
7.08746000 0.13141000 6.49119000 
9.06367000 8.75534000 6.47656000 
8.37364000 7.51706000 6.47893000 
9.10489000 6.30247000 6.47912000 
8.41602000 5.06358000 6.48226000 
9.14766000 3.84910000 6.48189000 
8.45999000 2.60953000 6.48515000 
9.19159000 1.39493000 6.48387000 
8.50494000 0.15476000 6.48645000 
10.78140000 8.40787000 2.92781000 
11.46820000 7.16741000 2.92702000 
10.74010000 5.95075000 2.92389000 
11.42650000 4.71024000 2.92359000 
10.69730000 3.49415000 2.92096000 
11.38370000 2.25374000 2.92165000 
10.65340000 1.03822000 2.91968000 
13.61340000 8.36218000 2.93164000 
12.88560000 7.14532000 2.92852000 
13.57270000 5.90513000 2.92745000 
12.84390000 4.68875000 2.92528000 
13.53080000 3.44858000 2.92524000 
12.80110000 2.23268000 2.92395000 
13.48810000 0.99264900 2.92514000 
15.03080000 8.34049000 2.93232000 
15.71860000 7.10066000 2.93017000 
14.99010000 5.88411000 2.92785000 
15.67760000 4.64423000 2.92690000 
14.94830000 3.42810000 2.92603000 
15.63560000 2.18824000 2.92666000 
14.90560000 0.97245500 2.92679000 
17.17580000 9.53624000 2.93631000 
17.86420000 8.29674000 2.93296000 
17.13600000 7.08002000 2.92975000 
17.82410000 5.84045000 2.92772000 
17.09500000 4.62416000 2.92656000 
17.78280000 3.38452000 2.92651000 
17.05300000 2.16855000 2.92709000 
17.74060000 0.92891500 2.92902000 
10.48150000 8.77881000 6.47455000 
11.21220000 7.56387000 6.47406000 
10.52260000 6.32537000 6.47596000 
11.25380000 5.11056000 6.47541000 
10.56530000 3.87147000 6.47800000 
11.29660000 2.65664000 6.47724000 
10.60910000 1.41698000 6.47979000 
11.34010000 0.20191100 6.47851000 
13.32000000 8.82450000 6.47046000 
12.63000000 7.58621000 6.47126000 
13.36050000 6.37101000 6.47013000 
12.67150000 5.13221000 6.47202000 
13.40230000 3.91708000 6.47137000 
12.71420000 2.67779000 6.47381000 
13.44500000 1.46258000 6.47337000 
12.75760000 0.22284900 6.47552000 
14.73770000 8.84650000 6.46739000 
15.46760000 7.63090000 6.46528000 
14.77820000 6.39227000 6.46665000 
15.50850000 5.17678000 6.46563000 
14.81990000 3.93771000 6.46807000 
15.55040000 2.72226000 6.46805000 
14.86250000 1.48281000 6.47075000 
15.59300000 0.26727400 6.47119000 
17.57510000 8.89030000 6.46009000 
16.88530000 7.65184000 6.46112000 
17.61500000 6.43599000 6.45934000 
16.92610000 5.19706000 6.46183000 
17.65620000 3.98133000 6.46176000 
16.96800000 2.74205000 6.46515000 
17.69820000 1.52637000 6.46632000 
17.01050000 0.28684800 6.46954000 
18.99280000 8.91075000 6.45496000 
19.03260000 6.45584000 6.45473000 
19.07370000 4.00068000 6.45813000 
19.11570000 1.54540000 6.46405000 
20.00930000 9.49369000 2.93695000 
19.28160000 8.27666000 2.93234000 
19.97020000 7.03738000 2.92924000 
19.24150000 5.82087000 2.92692000 
19.92970000 4.58147000 2.92606000 
19.20020000 3.36534000 2.92622000 
19.88810000 2.12584000 2.92791000 
19.15810000 0.90993800 2.92985000 
21.42680000 9.47453000 2.93669000 
22.11580000 8.23549000 2.93287000 
21.38770000 7.01859000 2.92879000 
22.07630000 5.77942000 2.92711000 
21.34720000 4.56302000 2.92584000 
22.03530000 3.32371000 2.92701000 
21.30550000 2.10762000 2.92844000 
21.99340000 0.86821200 2.93223000 
24.26040000 9.43541000 2.93916000 
23.53320000 8.21788000 2.93334000 
24.22220000 6.97892000 2.93109000 
23.49370000 5.76206000 2.92774000 
24.18220000 4.52294000 2.92823000 
23.45280000 3.30655000 2.92801000 
24.14090000 2.06728000 2.93144000 
23.41090000 0.85114600 2.93389000 
25.67780000 9.41934000 2.94076000 
26.36710000 8.18056000 2.93842000 
25.63960000 6.96302000 2.93302000 
26.32840000 5.72410000 2.93287000 
25.59960000 4.50720000 2.93034000 
26.28790000 3.26811000 2.93300000 
25.55830000 2.05164000 2.93371000 
26.24640000 0.81247400 2.93880000 
28.51080000 9.38477000 2.94843000 
27.78450000 8.16638000 2.94162000 
28.47360000 6.92764000 2.94109000 
27.74580000 5.71004000 2.93631000 
28.43430000 4.47116000 2.93804000 
27.70540000 3.25417000 2.93634000 
28.39360000 2.01518000 2.94044000 
27.66390000 0.79858000 2.94179000 
19.72200000 7.69455000 6.45235000 
19.76230000 5.23980000 6.45426000 
19.80370000 2.78479000 6.45960000 
19.84590000 0.32956800 6.46647000 
21.82960000 8.95196000 6.44513000 
21.13960000 7.71365000 6.44708000 
21.86890000 6.49732000 6.44613000 
21.17980000 5.25846000 6.44994000 
21.90960000 4.04233000 6.45135000 
21.22130000 2.80311000 6.45652000 
21.95130000 1.58713000 6.45949000 
21.26340000 0.34774100 6.46474000 
23.24730000 8.96989000 6.43979000 
23.97630000 7.75332000 6.43856000 
23.28650000 6.51492000 6.44163000 
24.01590000 5.29854000 6.44279000 
23.32710000 4.05963000 6.44778000 
24.05700000 2.84345000 6.45089000 
23.36880000 1.60425000 6.45692000 
24.09890000 0.38816100 6.46059000 
26.08490000 9.00720000 6.43275000 
25.39400000 7.76947000 6.43458000 
26.12320000 6.55287000 6.43553000 
25.43350000 5.31446000 6.43943000 
26.16320000 4.09805000 6.44235000 
25.47460000 2.85918000 6.44802000 
26.20460000 1.64292000 6.45188000 
25.51640000 0.40380000 6.45808000 
27.50260000 9.02163000 6.42987000 
28.23160000 7.80480000 6.43079000 
27.54090000 6.56708000 6.43306000 
28.27040000 5.35045000 6.43565000 
27.58090000 4.11210000 6.43996000 
28.31080000 2.89561000 6.44361000 
27.62210000 1.65684000 6.44927000 
28.35210000 0.44039200 6.45257000 
29.92810000 9.37238000 2.95253000 
30.61760000 8.13386000 2.95200000 
29.89090000 6.91543000 2.94561000 
30.57990000 5.67677000 2.94650000 
29.85170000 4.45909000 2.94246000 
30.54020000 3.22032000 2.94527000 
29.81110000 2.00321000 2.94424000 
30.49940000 0.76443000 2.94865000 
32.76030000 9.34279000 2.96421000 
32.03490000 8.12347000 2.95708000 
32.72430000 6.88507000 2.95739000 
31.99720000 5.66660000 2.95161000 
32.68610000 4.42808000 2.95312000 
31.95760000 3.21033000 2.94978000 
32.64630000 1.97177000 2.95263000 
31.91690000 0.75453000 2.95204000 
34.17750000 9.33410000 2.96930000 
34.86750000 8.09598000 2.96934000 
34.14150000 6.87669000 2.96265000 
34.83090000 5.63845000 2.96306000 
34.10340000 4.41998000 2.95795000 
34.79240000 3.18168000 2.95922000 
34.06370000 1.96385000 2.95645000 
34.75270000 0.72560800 2.95849000 
37.00940000 9.30931000 2.98109000 
36.28470000 8.08921000 2.97424000 
36.97460000 6.85128000 2.97388000 
36.24820000 5.63205000 2.96773000 
36.93770000 4.39404000 2.96762000 
36.20980000 3.17557000 2.96313000 
36.89910000 1.93756000 2.96356000 
36.17010000 0.71966300 2.96118000 
30.34140000 9.05407000 6.42898000 
29.64940000 7.81716000 6.42957000 
30.37860000 6.60029000 6.43187000 
29.68800000 5.36260000 6.43429000 
30.41780000 4.14589000 6.43750000 
29.72830000 2.90762000 6.44164000 
30.45830000 1.69097000 6.44477000 
29.76960000 0.45233600 6.44970000 
31.75930000 9.06456000 6.42897000 
32.48820000 7.84743000 6.43110000 
31.79640000 6.61051000 6.43169000 
32.52580000 5.39354000 6.43440000 
31.83540000 4.15591000 6.43660000 
32.56520000 2.93902000 6.43930000 
31.87590000 1.70088000 6.44270000 
32.60570000 0.48392100 6.44431000 
34.59910000 9.09197000 6.43270000 
33.90600000 7.85584000 6.43191000 
34.63510000 6.63858000 6.43417000 
33.94350000 5.40166000 6.43457000 
34.67310000 4.18451000 6.43674000 
33.98280000 2.94695000 6.43833000 
34.71260000 1.72978000 6.43968000 
34.02320000 0.49177600 6.44189000 
36.01700000 9.09877000 6.43406000 
36.74560000 7.88118000 6.43600000 
36.05290000 6.64498000 6.43509000 
36.78210000 5.42754000 6.43675000 
36.09080000 4.19061000 6.43675000 
36.82030000 2.97320000 6.43772000 
36.13010000 1.73572000 6.43839000 
36.85960000 0.51817900 6.43799000 
38.16350000 7.88612000 6.43722000 
38.19980000 5.43207000 6.43734000 
38.23790000 2.97747000 6.43734000 
38.27710000 0.52234400 6.43643000 
38.42660000 9.30390000 2.98525000 
39.11730000 8.06632000 2.98445000 
38.39190000 6.84635000 2.97796000 
39.08190000 5.60865000 2.97680000 
38.35500000 4.38950000 2.97122000 
39.04470000 3.15177000 2.97023000 
38.31650000 1.93330000 2.96627000 
39.00610000 0.69564700 2.96567000 
41.25880000 9.28325000 2.99395000 
40.53450000 8.06259000 2.98767000 
41.22520000 6.82524000 2.98583000 
40.49920000 5.60542000 2.97977000 
41.18940000 4.36798000 2.97770000 
40.46200000 3.14892000 2.97266000 
41.15200000 1.91149000 2.97081000 
40.42360000 0.69300900 2.96730000 
42.67590000 9.28049000 2.99616000 
43.36740000 8.04350000 2.99398000 
42.64240000 6.82305000 2.98796000 
43.33330000 5.58593000 2.98515000 
42.60670000 4.36628000 2.97958000 
43.29720000 3.12910000 2.97675000 
42.56940000 1.91010000 2.97226000 
43.25980000 0.67300600 2.96979000 
45.50860000 9.26314000 3.00077000 
44.78460000 8.04213000 2.99517000 
45.47610000 6.80534000 2.99197000 
44.75050000 5.58512000 2.98632000 
45.44150000 4.34822000 2.98282000 
44.71450000 3.12871000 2.97779000 
45.40520000 1.89180000 2.97454000 
44.67720000 0.67283100 2.97060000 
46.92580000 9.26237000 3.00099000 
47.61810000 8.02593000 2.99770000 
46.89340000 6.80519000 2.99233000 
47.58500000 5.56859000 2.98846000 
46.85880000 4.34858000 2.98329000 
47.54990000 3.11189000 2.97948000 
46.82260000 1.89249000 2.97505000 
47.51360000 0.65584600 2.97176000 
38.85740000 9.12164000 6.43887000 
38.89220000 6.66835000 6.43846000 
38.92900000 4.21438000 6.43793000 
38.96730000 1.75973000 6.43684000 
40.27530000 9.12539000 6.43996000 
41.00340000 7.90726000 6.44092000 
40.31000000 6.67159000 6.43920000 
41.03870000 5.45359000 6.43947000 
40.34660000 4.21724000 6.43805000 
41.07570000 2.99927000 6.43742000 
40.38480000 1.76237000 6.43611000 
41.11380000 0.54425000 6.43419000 
43.11580000 9.14458000 6.44331000 
42.42120000 7.90948000 6.44142000 
43.14940000 6.69114000 6.44147000 
42.45640000 5.45533000 6.43966000 
43.18500000 4.23708000 6.43893000 
42.49330000 3.00067000 6.43712000 
43.22210000 1.78238000 6.43535000 
42.53130000 0.54553200 6.43331000 
44.53360000 9.14604000 6.44333000 
45.26110000 7.92731000 6.44325000 
44.56710000 6.69201000 6.44140000 
45.29520000 5.47345000 6.44062000 
44.60260000 4.23751000 6.43867000 
45.33110000 3.01900000 6.43706000 
44.63960000 1.78256000 6.43483000 
45.36810000 0.56392600 6.43213000 
47.37380000 9.16240000 6.44434000 
46.67890000 7.92756000 6.44269000 
47.40640000 6.70865000 6.44192000 
46.71290000 5.47316000 6.44011000 
47.44090000 4.25438000 6.43867000 
46.74870000 3.01835000 6.43656000 
47.47700000 1.79956000 6.43425000 
46.78550000 0.56313600 6.43162000 
49.75920000 9.24748000 3.00205000 
49.03540000 8.02626000 2.99722000 
49.72760000 6.78998000 2.99325000 
49.00220000 5.56950000 2.98826000 
49.69390000 4.33306000 2.98414000 
48.96720000 3.11323000 2.97955000 
49.65860000 1.87675000 2.97583000 
48.93100000 0.65739800 2.97206000 
51.17650000 9.24812000 3.00074000 
51.86950000 8.01217000 2.99689000 
51.14490000 6.79126000 2.99233000 
51.83720000 5.55510000 2.98812000 
51.11120000 4.33485000 2.98364000 
51.80300000 3.09857000 2.97968000 
51.07590000 1.87887000 2.97577000 
51.76750000 0.64258100 2.97248000 
54.01060000 9.23497000 2.99925000 
53.28680000 8.01368000 2.99526000 
53.97970000 6.77782000 2.99116000 
53.25450000 5.55719000 2.98701000 
53.94670000 4.32113000 2.98297000 
53.22030000 3.10108000 2.97914000 
53.91210000 1.86493000 2.97566000 
53.18490000 0.64529600 2.97251000 
55.42790000 9.23658000 2.99694000 
56.12160000 8.00103000 2.99310000 
55.39700000 6.78006000 2.98943000 
56.08980000 5.54426000 2.98548000 
55.36400000 4.32387000 2.98190000 
56.05630000 3.08789000 2.97835000 
55.32950000 1.86799000 2.97527000 
56.02150000 0.63195400 2.97252000 
48.79160000 9.16221000 6.44318000 
49.51840000 7.94293000 6.44246000 
48.82400000 6.70786000 6.44097000 
49.55150000 5.48877000 6.43971000 
48.85850000 4.25312000 6.43793000 
49.58650000 3.03413000 6.43602000 
48.89440000 1.79804000 6.43373000 
49.62250000 0.57897500 6.43094000 
51.63120000 9.17651000 6.44205000 
50.93600000 7.94181000 6.44096000 
51.66290000 6.72239000 6.43990000 
50.96910000 5.48710000 6.43857000 
51.69660000 4.26786000 6.43703000 
51.00400000 3.03209000 6.43526000 
51.73180000 1.81289000 6.43306000 
51.03990000 0.57677200 6.43059000 
53.04890000 9.17521000 6.43996000 
53.77500000 7.95542000 6.43910000 
53.08050000 6.72047000 6.43826000 
53.80740000 5.50093000 6.43708000 
53.11410000 4.26547000 6.43590000 
53.84160000 3.04608000 6.43425000 
53.14920000 1.81021000 6.43247000 
53.87680000 0.59080400 6.43012000 
55.88780000 9.18805000 6.43729000 
55.19260000 7.95340000 6.43693000 
55.91890000 6.73353000 6.43608000 
55.22490000 5.49835000 6.43549000 
55.95190000 4.27872000 6.43436000 
55.25900000 3.04310000 6.43330000 
55.98640000 1.82357000 6.43166000 
55.29420000 0.58766500 6.42983000 
57.30540000 9.18603000 6.43462000 
57.33640000 6.73089000 6.43403000 
57.36940000 4.27560000 6.43300000 
57.40380000 1.82016000 6.43102000 
58.26280000 9.22458000 2.99392000 
57.53890000 8.00331000 2.99080000 
58.23240000 6.76778000 2.98709000 
57.50720000 5.54711000 2.98388000 
58.19990000 4.31133000 2.98040000 
57.47360000 3.09115000 2.97750000 
58.16580000 1.85524000 2.97471000 
57.43880000 0.63541200 2.97242000 
59.68020000 9.22680000 2.99110000 
60.37440000 7.99157000 2.98775000 
59.64970000 6.77063000 2.98499000 
60.34300000 5.53509000 2.98172000 
59.61720000 4.31467000 2.97909000 
60.30980000 3.07891000 2.97633000 
59.58320000 1.85888000 2.97418000 
60.27540000 0.62302500 2.97227000 
62.51590000 9.21546000 2.98744000 
61.79170000 7.99430000 2.98521000 
62.48560000 6.75903000 2.98226000 
61.76030000 5.53839000 2.97998000 
62.45340000 4.30282000 2.97736000 
61.72710000 3.08261000 2.97539000 
62.41960000 1.84685000 2.97349000 
61.69280000 0.62691900 2.97212000 
63.93330000 9.21801000 2.98448000 
64.62790000 7.98302000 2.98195000 
63.90300000 6.76220000 2.98011000 
64.59660000 5.52685000 2.97774000 
63.87070000 4.30648000 2.97602000 
64.56360000 3.07086000 2.97419000 
63.83700000 1.85081000 2.97294000 
64.52940000 0.61505200 2.97192000 
66.76970000 9.20693000 2.98072000 
66.04530000 7.98596000 2.97940000 
66.73950000 6.75087000 2.97737000 
66.01400000 5.53035000 2.97601000 
66.70730000 4.29492000 2.97433000 
65.98090000 3.07476000 2.97325000 
66.67360000 1.83910000 2.97223000 
65.94680000 0.61914200 2.97174000 
58.03100000 7.96581000 6.43407000 
58.06280000 5.51097000 6.43336000 
58.09640000 3.05588000 6.43201000 
58.13100000 0.60049200 6.42945000 
60.14370000 9.19790000 6.43113000 
59.44850000 7.96322000 6.43157000 
60.17420000 6.74298000 6.43132000 
59.48030000 5.50783000 6.43159000 
60.20680000 4.28788000 6.43119000 
59.51380000 3.05235000 6.43099000 
60.24080000 1.83256000 6.43017000 
59.54840000 0.59678000 6.42920000 
61.56120000 9.19546000 6.42821000 
62.28620000 7.97486000 6.42834000 
61.59170000 6.73992000 6.42915000 
62.31760000 5.51969000 6.42929000 
61.62420000 4.28433000 6.42979000 
62.35090000 3.06438000 6.42967000 
61.65820000 1.82873000 6.42955000 
62.38510000 0.60887600 6.42887000 
64.39870000 9.20675000 6.42448000 
63.70370000 7.97198000 6.42578000 
64.42900000 6.75143000 6.42639000 
63.73510000 5.51624000 6.42752000 
64.46130000 4.29606000 6.42802000 
63.76830000 3.06053000 6.42869000 
64.49500000 1.84058000 6.42876000 
63.80250000 0.60485700 6.42866000 
65.81620000 9.20412000 6.42152000 
66.54070000 7.98323000 6.42253000 
65.84640000 6.74818000 6.42425000 
66.57200000 5.52773000 6.42530000 
65.87870000 4.29232000 6.42668000 
66.60510000 3.07220000 6.42746000 
65.91240000 1.83655000 6.42819000 
66.63920000 0.61660800 6.42840000 
68.18720000 9.20957000 2.97776000 
68.88210000 7.97476000 2.97615000 
68.15690000 6.75413000 2.97524000 
68.85080000 5.51891000 2.97380000 
68.12470000 4.29867000 2.97300000 
68.81770000 3.06313000 2.97205000 
68.09100000 1.84314000 2.97167000 
68.78350000 0.60742500 2.97150000 
71.02440000 9.19839000 2.97401000 
70.29950000 7.97769000 2.97360000 
70.99400000 6.74272000 2.97249000 
70.26820000 5.52241000 2.97206000 
70.96160000 4.28704000 2.97126000 
70.23510000 3.06703000 2.97109000 
70.92780000 1.83138000 2.97092000 
70.20080000 0.61149700 2.97130000 
72.44190000 9.20092000 2.97106000 
73.13700000 7.96622000 2.97034000 
72.41150000 6.74587000 2.97033000 
73.10540000 5.51071000 2.96977000 
72.37900000 4.29068000 2.96988000 
73.07200000 3.05516000 2.96979000 
72.34510000 1.83531000 2.97031000 
73.03760000 0.59955400 2.97099000 
75.27990000 9.18929000 2.96745000 
74.55450000 7.96893000 2.96781000 
75.24910000 6.73402000 2.96756000 
74.52290000 5.51399000 2.96799000 
75.21630000 4.27863000 2.96806000 
74.48950000 3.05882000 2.96878000 
75.18210000 1.82313000 2.96948000 
74.45500000 0.60339700 2.97075000 
68.65290000 9.21518000 6.41776000 
67.95820000 7.98026000 6.41999000 
68.68310000 6.75950000 6.42152000 
67.98940000 5.52420000 6.42357000 
68.71530000 4.30386000 6.42499000 
68.02240000 3.06828000 6.42652000 
68.74900000 1.84824000 6.42748000 
68.05660000 0.61250100 6.42821000 
70.07030000 9.21258000 6.41479000 
70.79450000 7.99148000 6.41673000 
70.10050000 6.75627000 6.41938000 
70.82580000 5.53567000 6.42135000 
70.13270000 4.30015000 6.42366000 
70.85900000 3.07995000 6.42533000 
70.16640000 1.84423000 6.42693000 
70.89320000 0.62427700 6.42800000 
72.90620000 9.22379000 6.41106000 
72.21190000 7.98865000 6.41417000 
72.93660000 6.76774000 6.41662000 
72.24320000 5.53227000 6.41961000 
72.96900000 4.31186000 6.42193000 
72.27630000 3.07615000 6.42438000 
73.00290000 1.85611000 6.42623000 
72.31060000 0.62029200 6.42784000 
74.32360000 9.22143000 6.40817000 
75.04760000 8.00019000 6.41099000 
74.35390000 6.76476000 6.41449000 
75.07920000 5.54408000 6.41739000 
74.38630000 4.30838000 6.42059000 
75.11260000 3.08819000 6.42318000 
74.42030000 1.85233000 6.42569000 
75.14720000 0.63246100 6.42767000 
76.46490000 7.99773000 6.40857000 
76.49650000 5.54105000 6.41570000 
76.52990000 3.08474000 6.42228000 
76.56460000 0.62882700 6.42754000 
76.69750000 9.19148000 2.96466000 
77.39270000 7.95683000 2.96476000 
76.66660000 6.73683000 2.96545000 
77.36060000 5.50167000 2.96575000 
76.63380000 4.28192000 2.96667000 
77.32670000 3.04634000 2.96745000 
76.59950000 1.82672000 2.96883000 
77.29180000 0.59085800 2.97039000 
79.53620000 9.17902000 2.96164000 
78.81030000 7.95907000 2.96244000 
79.50480000 6.72414000 2.96303000 
78.77810000 5.50447000 2.96408000 
79.47140000 4.26904000 2.96500000 
78.74420000 3.04954000 2.96646000 
79.43660000 1.81373000 2.96800000 
78.70920000 0.59422700 2.97011000 
80.95390000 9.18059000 2.95931000 
81.64900000 7.94592000 2.96017000 
80.92240000 6.72634000 2.96121000 
81.61620000 5.49110000 2.96232000 
80.88890000 4.27172000 2.96377000 
81.58170000 3.03601000 2.96533000 
80.85400000 1.81669000 2.96739000 
81.54600000 0.58065100 2.96968000 
83.79330000 9.16685000 2.95759000 
83.06670000 7.94739000 2.95841000 
83.76110000 6.71236000 2.95972000 
83.03380000 5.49312000 2.96100000 
83.72690000 4.25754000 2.96262000 
82.99920000 3.03841000 2.96450000 
83.69130000 1.80240000 2.96667000 
82.96340000 0.58321400 2.96936000 
85.21100000 9.16745000 2.95609000 
85.90600000 7.93267000 2.95758000 
85.17870000 6.71358000 2.95851000 
85.87230000 5.47817000 2.96020000 
85.14450000 4.25923000 2.96174000 
85.83690000 3.02330000 2.96379000 
85.10880000 1.80436000 2.96612000 
85.80040000 0.56805200 2.96877000 
77.15880000 9.23316000 6.40485000 
77.18950000 6.77676000 6.41194000 
77.22230000 4.32065000 6.41897000 
77.25670000 1.86479000 6.42506000 
78.57610000 9.23132000 6.40232000 
79.29990000 8.01002000 6.40602000 
78.60680000 6.77428000 6.41005000 
79.33200000 5.55362000 6.41388000 
78.63960000 4.31767000 6.41778000 
79.36600000 3.09757000 6.42131000 
78.67400000 1.86150000 6.42460000 
79.40110000 0.64180000 6.42748000 
81.41050000 9.24403000 6.40020000 
80.71720000 8.00822000 6.40411000 
81.44180000 6.78728000 6.40839000 
80.74930000 5.55124000 6.41257000 
81.47520000 4.33094000 6.41676000 
80.78330000 3.09477000 6.42064000 
81.51020000 1.87499000 6.42430000 
80.81850000 0.63879700 6.42746000 
82.82770000 9.24302000 6.39851000 
83.55160000 8.02176000 6.40307000 
82.85910000 6.78563000 6.40715000 
83.58440000 5.56509000 6.41187000 
82.89250000 4.32879000 6.41603000 
83.61910000 3.10887000 6.42040000 
82.92760000 1.87251000 6.42410000 
83.65500000 0.65305600 6.42770000 
85.66140000 9.25726000 6.39860000 
84.96880000 8.02099000 6.40214000 
85.69350000 6.80018000 6.40726000 
85.00170000 5.56374000 6.41132000 
85.72780000 4.34364000 6.41629000 
85.03640000 3.10709000 6.42023000 
85.76370000 1.88757000 6.42453000 
85.07240000 0.65106300 6.42790000 
88.05100000 9.15185000 2.95634000 
87.32380000 7.93294000 2.95668000 
88.01790000 6.69773000 2.95846000 
87.29000000 5.47898000 2.95946000 
87.98270000 4.24316000 2.96142000 
87.25440000 3.02448000 2.96320000 
87.94610000 1.78817000 2.96553000 
87.21780000 0.56938100 2.96833000 
89.46880000 9.15101000 2.95595000 
90.16350000 7.91601000 2.95780000 
89.43560000 6.69748000 2.95808000 
90.12880000 5.46179000 2.95996000 
89.40030000 4.24336000 2.96100000 
90.09230000 3.00709000 2.96300000 
89.36360000 1.78863000 2.96503000 
90.05470000 0.55193500 2.96737000 
92.30920000 9.13286000 2.95854000 
91.58130000 7.91453000 2.95796000 
92.27500000 6.67900000 2.95979000 
91.54640000 5.46081000 2.95992000 
92.23870000 4.22461000 2.96162000 
91.50980000 3.00646000 2.96265000 
92.20100000 1.76973000 2.96438000 
91.47210000 0.55143000 2.96665000 
93.72710000 9.12996000 2.95933000 
94.42130000 7.89460000 2.96112000 
93.69270000 6.67663000 2.96029000 
94.38540000 5.44053000 2.96173000 
93.65630000 4.22266000 2.96164000 
94.34770000 2.98593000 2.96275000 
93.61850000 1.76800000 2.96376000 
94.30890000 0.53080500 2.96483000 
87.07860000 9.25750000 6.39825000 
87.80260000 8.03640000 6.40361000 
87.11080000 6.79979000 6.40714000 
87.83630000 5.57947000 6.41259000 
87.14510000 4.34274000 6.41639000 
87.87200000 3.12310000 6.42132000 
87.18100000 1.88635000 6.42482000 
87.90890000 0.66723700 6.42876000 
89.91150000 9.27394000 6.40158000 
89.21980000 8.03714000 6.40418000 
89.94470000 6.81657000 6.41001000 
89.25360000 5.57964000 6.41325000 
89.98000000 4.35985000 6.41873000 
89.28930000 3.12285000 6.42198000 
90.01690000 1.90370000 6.42651000 
89.32630000 0.66676200 6.42936000 
91.32870000 9.27597000 6.40309000 
92.05290000 8.05516000 6.40916000 
91.36190000 6.81800000 6.41150000 
92.08770000 5.59803000 6.41745000 
91.39730000 4.36078000 6.42009000 
92.12450000 3.14155000 6.42518000 
91.43430000 1.90431000 6.42761000 
92.16260000 0.68565000 6.43134000 
94.16100000 9.29542000 6.41045000 
93.47010000 8.05803000 6.41169000 
94.19530000 6.83788000 6.41805000 
93.50500000 5.60037000 6.41979000 
94.23180000 4.38104000 6.42542000 
93.54180000 3.14349000 6.42710000 
94.26990000 1.92483000 6.43132000 
93.58000000 0.68737500 6.43265000 
95.57820000 9.29987000 6.41401000 
95.61260000 6.84181000 6.42151000 
95.64910000 4.38454000 6.42845000 
95.68730000 1.92804000 6.43359000 
96.56760000 9.10841000 2.96385000 
95.83910000 7.89065000 2.96219000 
96.53210000 6.65464000 2.96345000 
95.80310000 5.43702000 2.96226000 
96.49460000 4.20031000 2.96284000 
95.76520000 2.98271000 2.96245000 
96.45570000 1.74544000 2.96255000 
95.72630000 0.52769800 2.96353000 
97.98550000 9.10271000 2.96527000 
98.67890000 7.86680000 2.96641000 
97.94990000 6.64939000 2.96442000 
98.64180000 5.41270000 2.96461000 
97.91230000 4.19538000 2.96295000 
98.60290000 2.95804000 2.96218000 
97.87320000 1.74069000 2.96149000 
98.56290000 0.50289400 2.96022000 
100.82600000 9.07690000 2.96974000 
100.09700000 7.85963000 2.96753000 
100.78900000 6.62297000 2.96750000 
100.05900000 5.40585000 2.96505000 
100.75000000 4.16847000 2.96363000 
100.02000000 2.95141000 2.96147000 
100.71000000 1.71349000 2.95900000 
99.98040000 0.49634300 2.95808000 
102.24300000 9.06769000 2.97039000 
102.93600000 7.83105000 2.97029000 
102.20700000 6.61407000 2.96785000 
102.89800000 5.37664000 2.96611000 
102.16800000 4.15980000 2.96312000 
102.85800000 2.92177000 2.95980000 
102.12800000 1.70495000 2.95720000 
102.81700000 0.46651700 2.95309000 
105.08300000 9.03694000 2.97139000 
104.35400000 7.82003000 2.96991000 
105.04500000 6.58258000 2.96816000 
104.31500000 5.36585000 2.96536000 
105.00500000 4.12773000 2.96167000 
104.27500000 2.91112000 2.95818000 
104.96400000 1.67254000 2.95313000 
104.23400000 0.45593700 2.95028000 
96.30280000 8.07955000 6.42069000 
96.33880000 5.62236000 6.42766000 
96.37680000 3.16585000 6.43319000 
96.41610000 0.70993900 6.43642000 
98.41010000 9.32319000 6.42502000 
97.72000000 8.08524000 6.42514000 
98.44570000 6.86570000 6.43180000 
97.75610000 5.62763000 6.43184000 
98.48340000 4.40891000 6.43717000 
97.79420000 3.17079000 6.43664000 
98.52270000 1.95274000 6.43988000 
97.83350000 0.71469300 6.43876000 
99.82730000 9.33074000 6.42999000 
100.55300000 8.11112000 6.43707000 
99.86290000 6.87286000 6.43684000 
100.59000000 5.65413000 6.44280000 
99.90070000 4.41575000 6.44172000 
100.62900000 3.19776000 6.44551000 
99.94010000 1.95937000 6.44340000 
100.66900000 0.74190500 6.44464000 
102.65900000 9.35867000 6.44216000 
101.97000000 8.12027000 6.44232000 
102.69600000 6.90153000 6.44888000 
102.00700000 5.66299000 6.44798000 
102.73500000 4.44505000 6.45245000 
102.04600000 3.20641000 6.44999000 
102.77500000 1.98906000 6.45164000 
102.08700000 0.75044400 6.44790000 
104.07700000 9.36980000 6.44682000 
104.80300000 8.15109000 6.45382000 
104.11300000 6.91246000 6.45390000 
104.84100000 5.69457000 6.45908000 
104.15200000 4.45578000 6.45723000 
104.88100000 3.23855000 6.45952000 
104.19300000 1.99968000 6.45562000 
104.92200000 0.78287700 6.45488000 
106.50000000 9.02382000 2.96956000 
107.19200000 7.78635000 2.96806000 
106.46200000 6.56966000 2.96653000 
107.15200000 5.33148000 2.96298000 
106.42300000 4.11498000 2.95979000 
107.11200000 2.87629000 2.95443000 
106.38200000 1.65991000 2.95064000 
107.07000000 0.42093300 2.94461000 
109.33800000 8.98806000 2.96445000 
108.60900000 7.77140000 2.96495000 
109.30000000 6.53319000 2.96199000 
108.57000000 5.31673000 2.96025000 
109.25900000 4.07797000 2.95526000 
108.52900000 2.86170000 2.95181000 
109.21700000 1.62261000 2.94564000 
108.48700000 0.40642100 2.94190000 
110.75600000 8.97121000 2.95972000 
111.44600000 7.73304000 2.95764000 
110.71700000 6.51661000 2.95800000 
111.40600000 5.27785000 2.95397000 
110.67700000 4.06162000 2.95198000 
111.36500000 2.82249000 2.94642000 
110.63500000 1.60642000 2.94299000 
111.32300000 0.36709800 2.93721000 
113.59300000 8.93115000 2.95017000 
112.86400000 7.71480000 2.95252000 
113.55300000 6.47614000 2.94978000 
112.82400000 5.25997000 2.94978000 
113.51200000 4.02088000 2.94539000 
112.78300000 2.80488000 2.94333000 
113.47100000 1.56553000 2.93822000 
112.74000000 0.34962100 2.93524000 
106.90900000 9.40273000 6.45617000 
106.22000000 8.16403000 6.45784000 
106.94700000 6.94620000 6.46364000 
106.25800000 5.70735000 6.46331000 
106.98700000 4.49021000 6.46636000 
106.29900000 3.25121000 6.46345000 
107.02800000 2.03455000 6.46326000 
106.34000000 0.79549300 6.45815000 
108.32700000 9.41760000 6.45866000 
109.05400000 8.19981000 6.46487000 
108.36500000 6.96093000 6.46655000 
109.09300000 5.74385000 6.47038000 
108.40400000 4.50481000 6.46938000 
109.13400000 3.28825000 6.47001000 
108.44600000 2.04907000 6.46616000 
109.17500000 0.83279800 6.46391000 
111.16000000 9.45530000 6.46269000 
110.47100000 8.21636000 6.46619000 
111.19900000 6.99929000 6.47070000 
110.51000000 5.76022000 6.47193000 
111.23900000 4.54370000 6.47352000 
110.55100000 3.30446000 6.47179000 
111.28100000 2.08828000 6.47043000 
110.59300000 0.84894200 6.46605000 
112.57800000 9.47353000 6.46283000 
113.30500000 8.25639000 6.46782000 
112.61600000 7.01724000 6.47084000 
113.34500000 5.80067000 6.47341000 
112.65700000 4.56138000 6.47391000 
113.38600000 3.34520000 6.47371000 
112.69800000 2.10579000 6.47144000 
113.42800000 0.88982300 6.46914000 
114.72300000 8.27577000 6.46727000 
114.76300000 5.81963000 6.47279000 
114.80400000 3.36383000 6.47360000 
114.84600000 0.90829500 6.47009000 
115.01100000 8.91142000 2.94464000 
115.70100000 7.67295000 2.94327000 
114.97100000 6.45691000 2.94496000 
115.66000000 5.21797000 2.94200000 
114.93000000 4.00208000 2.94166000 
115.61800000 2.76280000 2.93766000 
114.88800000 1.54701000 2.93587000 
115.57600000 0.30752900 2.93199000 
117.84800000 8.86835000 2.93610000 
117.11800000 7.65252000 2.93856000 
117.80800000 6.41383000 2.93696000 
117.07800000 5.19814000 2.93794000 