written by TR 
1.000000000 
99.974584900 0.000000000 0.000000000 
0.000000000 173.161060000 0.000000000 
0.000000000 0.000000000 18.400000000 
Type1 
13256
Cartesian 
0.87152600 8.58034000 7.41512000 
0.14118100 7.36533000 7.41094000 
0.82751300 6.12460000 7.40666000 
0.09600660 4.91022000 7.40224000 
0.78124900 3.66896000 7.39854000 
0.04867990 2.45514000 7.39524000 
0.73315700 1.21351000 7.39346000 
0.00000096 0.00000141 7.39253000 
2.28903000 8.55287000 7.41584000 
2.97522000 7.31195000 7.41266000 
2.24500000 6.09679000 7.40780000 
2.93024000 4.85545000 7.40486000 
2.19873000 3.64098000 7.40008000 
2.88326000 2.39933000 7.39855000 
2.15065000 1.18547000 7.39524000 
5.12167000 8.50082000 7.41904000 
4.39263000 7.28491000 7.41474000 
5.07796000 6.04353000 7.41276000 
4.34766000 4.82830000 7.40781000 
5.03234000 3.58669000 7.40670000 
4.30071000 2.37218000 7.40223000 
4.98519000 1.13056000 7.40292000 
6.53904000 8.47469000 7.42131000 
7.22458000 7.23339000 7.42021000 
6.49533000 6.01748000 7.41597000 
7.18030000 4.77599000 7.41527000 
6.44974000 3.56078000 7.41089000 
7.13446000 2.31928000 7.41137000 
6.40266000 1.10476000 7.40778000 
8.64194000 7.20834000 7.42298000 
8.59768000 4.75129000 7.41887000 
8.55190000 2.29487000 7.41578000 
9.37048000 8.42470000 7.42640000 
9.32737000 5.96707000 7.42251000 
9.28281000 3.50999000 7.41909000 
9.23710000 1.05375000 7.41716000 
10.78790000 8.40036000 7.42858000 
11.47390000 7.15939000 7.42806000 
10.74480000 5.94327000 7.42506000 
11.43040000 4.70226000 7.42492000 
10.70020000 3.48668000 7.42227000 
11.38580000 2.24575000 7.42298000 
10.65460000 1.03072000 7.42094000 
13.62010000 8.35245000 7.43259000 
12.89130000 7.13616000 7.42967000 
13.57770000 5.89548000 7.42900000 
12.84790000 4.67966000 7.42675000 
13.53400000 3.43897000 7.42682000 
12.80330000 2.22360000 7.42533000 
13.48940000 0.98303500 7.42639000 
15.03760000 8.32960000 7.43369000 
15.72460000 7.08928000 7.43237000 
14.99510000 5.87331000 7.42987000 
15.68180000 4.63293000 7.42927000 
14.95140000 3.41736000 7.42793000 
15.63790000 2.17696000 7.42846000 
14.90690000 0.96172100 7.42810000 
17.18370000 9.52368000 7.43825000 
17.87130000 8.28369000 7.43635000 
17.14210000 7.06752000 7.43292000 
17.82940000 5.82744000 7.43166000 
17.09930000 4.61172000 7.42974000 
17.78620000 3.37154000 7.42974000 
17.05540000 2.15614000 7.42933000 
17.74210000 0.91592300 7.43075000 
20.01740000 9.47917000 7.44190000 
19.28880000 8.26261000 7.43724000 
19.97660000 7.02280000 7.43549000 
19.24690000 5.80681000 7.43227000 
19.93420000 4.56687000 7.43177000 
19.20370000 3.35128000 7.43046000 
19.89060000 2.11121000 7.43161000 
19.15960000 0.89585000 7.43199000 
21.43490000 9.45918000 7.44351000 
22.12300000 8.21960000 7.44164000 
21.39410000 7.00313000 7.43689000 
22.08180000 5.76342000 7.43598000 
21.35170000 4.54750000 7.43308000 
22.03890000 3.30761000 7.43383000 
21.30810000 2.09204000 7.43312000 
21.99500000 0.85202900 7.43560000 
24.26850000 9.41849000 7.45000000 
23.54050000 8.20131000 7.44406000 
24.22860000 6.96180000 7.44302000 
23.49930000 5.74534000 7.43837000 
24.18680000 4.50565000 7.43866000 
23.45640000 3.28970000 7.43617000 
24.14350000 2.04985000 7.43822000 
23.41260000 0.83419600 7.43801000 
25.68590000 9.40189000 7.45324000 
26.37430000 8.16257000 7.45243000 
25.64600000 6.94537000 7.44647000 
26.33390000 5.70588000 7.44640000 
25.60430000 4.48937000 7.44206000 
26.29160000 3.24971000 7.44341000 
25.56100000 2.03367000 7.44140000 
26.24810000 0.79392200 7.44428000 
28.51880000 9.36604000 7.46299000 
27.79170000 8.14796000 7.45652000 
28.48000000 6.90871000 7.45631000 
27.75130000 5.69146000 7.45061000 
28.43900000 4.45203000 7.45123000 
27.70910000 3.23543000 7.44739000 
28.39640000 1.99588000 7.44928000 
27.66560000 0.77970000 7.44776000 
29.93610000 9.35325000 7.46714000 
30.62490000 8.11425000 7.46705000 
29.89740000 6.89617000 7.46078000 
30.58550000 5.65701000 7.46081000 
29.85640000 4.43972000 7.45561000 
30.54400000 3.20042000 7.45641000 
29.81380000 1.98372000 7.45317000 
30.50130000 0.74439000 7.45496000 
32.76860000 9.32239000 7.47726000 
32.04220000 8.10348000 7.47117000 
32.73090000 6.86462000 7.47084000 
32.00280000 5.64658000 7.46503000 
32.69090000 4.40756000 7.46486000 
31.96150000 3.19024000 7.46033000 
32.64920000 1.95116000 7.46083000 
31.91880000 0.73434700 7.45821000 
34.18590000 9.31315000 7.48056000 
34.87520000 8.07463000 7.48012000 
34.14820000 6.85584000 7.47439000 
34.83690000 5.61716000 7.47350000 
34.10830000 4.39917000 7.46832000 
34.79650000 3.16038000 7.46766000 
34.06670000 1.94303000 7.46387000 
34.75470000 0.70423800 7.46385000 
36.29250000 8.06721000 7.48260000 
36.25420000 5.61026000 7.47610000 
36.21390000 3.15387000 7.47014000 
36.17210000 0.69793400 7.46598000 
37.01860000 9.28667000 7.48773000 
36.98190000 6.82889000 7.48130000 
36.94300000 4.37178000 7.47457000 
36.90220000 1.91532000 7.46900000 
38.43590000 9.28028000 7.48896000 
39.12600000 8.04236000 7.48751000 
38.39920000 6.82315000 7.48279000 
39.08860000 5.58503000 7.48071000 
38.36030000 4.36658000 7.47619000 
39.04920000 3.12831000 7.47420000 
38.31970000 1.91046000 7.47060000 
39.00830000 0.67219600 7.46922000 
41.26940000 9.25715000 7.49166000 
40.54340000 8.03746000 7.48774000 
41.23360000 6.79972000 7.48545000 
40.50600000 5.58078000 7.48128000 
41.19540000 4.34284000 7.47876000 
40.46660000 3.12455000 7.47503000 
41.15550000 1.88649000 7.47295000 
40.42570000 0.66867100 7.47024000 
42.68670000 9.25276000 7.49064000 
43.37780000 8.01544000 7.48837000 
42.65090000 6.79610000 7.48488000 
43.34110000 5.55851000 7.48215000 
42.61280000 4.33983000 7.47869000 
43.30230000 3.10203000 7.47617000 
42.57300000 1.88387000 7.47334000 
43.26210000 0.64601400 7.47162000 
44.79520000 8.01215000 7.48670000 
44.75850000 5.55594000 7.48111000 
45.44850000 4.31843000 7.47844000 
44.71970000 3.09999000 7.47580000 
45.40920000 1.86230000 7.47375000 
44.67960000 0.64422700 7.47191000 
45.52140000 9.23177000 7.48936000 
45.48610000 6.77493000 7.48403000 
46.93890000 9.22854000 7.48669000 
47.63070000 7.99173000 7.48428000 
46.90360000 6.77252000 7.48206000 
47.59430000 5.53533000 7.47947000 
46.86600000 4.31667000 7.47726000 
47.55590000 3.07920000 7.47509000 
46.82660000 1.86094000 7.47340000 
47.51610000 0.62332800 7.47219000 
49.77500000 9.20854000 7.48306000 
49.04820000 7.98920000 7.48152000 
49.73980000 6.75238000 7.47921000 
49.01180000 5.53356000 7.47754000 
49.70230000 4.29635000 7.47544000 
48.97330000 3.07795000 7.47406000 
49.66310000 1.84047000 7.47273000 
48.93350000 0.62233500 7.47207000 
51.19250000 9.20566000 7.47972000 
51.88500000 7.96921000 7.47782000 
51.15730000 6.75033000 7.47665000 
51.84850000 5.51341000 7.47480000 
51.11980000 4.29495000 7.47378000 
51.81000000 3.05764000 7.47247000 
51.08060000 1.83947000 7.47200000 
51.77020000 0.60193700 7.47172000 
54.03000000 9.18550000 7.47573000 
53.30260000 7.96664000 7.47488000 
53.99460000 6.73005000 7.47339000 
53.26610000 5.51159000 7.47266000 
53.95680000 4.27450000 7.47150000 
53.22750000 3.05635000 7.47120000 
53.91730000 1.81890000 7.47082000 
53.18760000 0.60087800 7.47133000 
55.44770000 9.18219000 7.47270000 
56.14050000 7.94594000 7.47162000 
55.41220000 6.72755000 7.47100000 
56.10360000 5.49072000 7.47007000 
55.37440000 4.27264000 7.46984000 
56.06460000 3.03531000 7.46943000 
55.33480000 1.81741000 7.46993000 
56.02430000 0.57976500 7.47046000 
58.28640000 9.16079000 7.47003000 
57.55820000 7.94253000 7.46927000 
58.25030000 6.70597000 7.46861000 
57.52120000 5.48801000 7.46825000 
58.21190000 4.25086000 7.46787000 
57.48210000 3.03310000 7.46818000 
58.17180000 1.79549000 7.46846000 
57.44180000 0.57776800 7.46978000 
59.70420000 9.15625000 7.46797000 
60.39700000 7.91997000 7.46757000 
59.66800000 6.70218000 7.46687000 
60.35930000 5.46521000 7.46655000 
59.62950000 4.24764000 7.46648000 
60.31950000 3.01010000 7.46650000 
59.58930000 1.79261000 7.46740000 
60.27850000 0.55467500 7.46813000 
62.54380000 9.13245000 7.46735000 
61.81480000 7.91485000 7.46613000 
62.50660000 6.67809000 7.46586000 
61.77690000 5.46071000 7.46524000 
62.46730000 4.22327000 7.46502000 
61.73710000 3.00602000 7.46527000 
62.42630000 1.76806000 7.46541000 
61.69600000 0.55077700 7.46693000 
63.96160000 9.12577000 7.46629000 
64.65410000 7.88921000 7.46602000 
63.92440000 6.67203000 7.46479000 
64.61520000 5.43471000 7.46434000 
63.88500000 4.21770000 7.46381000 
64.57450000 2.97974000 7.46335000 
63.84390000 1.76277000 7.46396000 
64.53250000 0.52437700 7.46387000 
66.80140000 9.09838000 7.46693000 
66.07190000 7.88139000 7.46518000 
66.76320000 6.64418000 7.46453000 
66.03300000 5.42738000 7.46326000 
66.72270000 4.18944000 7.46226000 
65.99210000 2.97275000 7.46185000 
66.68070000 1.73426000 7.46081000 
65.95000000 0.51752300 7.46181000 
68.21930000 9.08862000 7.46610000 
68.91100000 7.85151000 7.46525000 
68.18090000 6.63487000 7.46352000 
68.87100000 5.39696000 7.46209000 
68.14040000 4.18049000 7.46079000 
68.82920000 2.94194000 7.45891000 
68.09830000 1.72552000 7.45864000 
68.78630000 0.48655900 7.45682000 
71.05860000 9.05662000 7.46572000 
70.32880000 7.84009000 7.46401000 
71.01920000 6.60220000 7.46229000 
70.28880000 5.38588000 7.46055000 
70.97770000 4.14728000 7.45808000 
70.24690000 2.93110000 7.45676000 
70.93480000 1.69201000 7.45392000 
70.20380000 0.47583000 7.45386000 
72.47650000 9.04304000 7.46380000 
72.43690000 6.58893000 7.46038000 
72.39540000 4.13425000 7.45585000 
72.35240000 1.67913000 7.45109000 
73.16710000 7.80518000 7.46192000 
73.12610000 5.35030000 7.45763000 
73.08340000 2.89506000 7.45238000 
73.03980000 0.43960700 7.44759000 
75.31470000 9.00595000 7.45991000 
74.58490000 7.78974000 7.45922000 
75.27420000 6.55109000 7.45651000 
74.54380000 5.33511000 7.45504000 
75.23190000 4.09584000 7.45141000 
74.50100000 2.88005000 7.44962000 
75.18840000 1.64041000 7.44558000 
74.45730000 0.42470400 7.44444000 
76.73250000 8.98846000 7.45614000 
77.42200000 7.74984000 7.45371000 
76.69190000 6.53388000 7.45323000 
77.38020000 5.29461000 7.44991000 
76.64950000 4.07887000 7.44846000 
77.33700000 2.83917000 7.44446000 
76.60600000 1.62360000 7.44276000 
77.29300000 0.38368400 7.43889000 
79.56960000 8.94669000 7.44889000 
78.83970000 7.73079000 7.44964000 
79.52830000 6.49159000 7.44696000 
78.79780000 5.27590000 7.44650000 
79.48550000 4.03622000 7.44304000 
78.75460000 2.82071000 7.44166000 
79.44160000 1.58075000 7.43797000 
78.71050000 0.36536300 7.43656000 
80.98740000 8.92601000 7.44432000 
81.67630000 7.68698000 7.44246000 
80.94590000 6.47138000 7.44310000 
81.63390000 5.23183000 7.44048000 
80.90310000 4.01641000 7.43999000 
81.59030000 2.77650000 7.43688000 
80.85920000 1.56121000 7.43575000 
81.54600000 0.32110700 7.43290000 
83.82440000 8.88086000 7.43717000 
83.09400000 7.66545000 7.43851000 
83.78240000 6.42614000 7.43676000 
83.05150000 5.21088000 7.43717000 
83.73900000 3.97114000 7.43478000 
83.00780000 2.75599000 7.43440000 
83.69480000 1.51594000 7.43190000 
82.96350000 0.30079500 7.43132000 
85.24210000 8.85815000 7.43369000 
85.93110000 7.61916000 7.43259000 
85.20000000 6.40415000 7.43345000 
85.88810000 5.16468000 7.43164000 
85.15670000 3.94977000 7.43194000 
85.84390000 2.70987000 7.42974000 
85.11230000 1.49495000 7.42978000 
85.79900000 0.25473000 7.42786000 
88.08010000 8.81087000 7.42900000 
87.34880000 7.59613000 7.42967000 
88.03740000 6.35699000 7.42806000 
87.30570000 5.14238000 7.42858000 
87.99330000 3.90273000 7.42640000 
87.26150000 2.68813000 7.42691000 
87.94820000 1.44799000 7.42473000 
87.21650000 0.23322400 7.42556000 
89.49790000 8.78676000 7.42675000 
90.18710000 7.54793000 7.42492000 
89.45520000 6.33360000 7.42506000 
90.14330000 5.09421000 7.42251000 
89.41100000 3.87997000 7.42298000 
90.09800000 2.63998000 7.42021000 
89.36580000 1.42563000 7.42131000 
90.05180000 0.18508700 7.41904000 
92.33680000 8.73753000 7.42298000 
91.60490000 7.52333000 7.42227000 
92.29340000 6.28415000 7.41909000 
91.56100000 5.07017000 7.41887000 
92.24830000 3.83033000 7.41527000 
91.51560000 2.61638000 7.41597000 
92.20180000 1.37588000 7.41276000 
91.46940000 0.16168100 7.41474000 
93.75470000 8.71178000 7.42094000 
94.44350000 7.47269000 7.41716000 
93.71120000 6.25873000 7.41578000 
94.39880000 5.01899000 7.41137000 
93.66600000 3.80526000 7.41089000 
94.35230000 2.56479000 7.40670000 
93.61930000 1.35104000 7.40781000 
94.30450000 0.10994300 7.40486000 
96.59280000 8.66035000 7.41731000 
95.86120000 7.44609000 7.41473000 
96.54890000 6.20632000 7.40990000 
95.81650000 4.99249000 7.40778000 
96.50290000 3.75202000 7.40292000 
95.76990000 2.53844000 7.40223000 
96.45510000 1.29731000 7.39855000 
95.72200000 0.08366780 7.40008000 
98.01050000 8.63306000 7.41602000 
98.69820000 7.39313000 7.41139000 
97.96660000 6.17883000 7.40782000 
98.65300000 4.93827000 7.40291000 
97.92050000 3.72447000 7.40008000 
98.60570000 2.48330000 7.39610000 
97.87260000 1.26978000 7.39524000 
98.55710000 0.02818080 7.39346000 
1.03339000 18.40340000 7.43484000 
0.30529000 17.18700000 7.43401000 
0.99409300 15.94760000 7.43104000 
0.26566800 14.73140000 7.42991000 
0.95421100 13.49190000 7.42720000 
0.22542900 12.27590000 7.42523000 
0.91354700 11.03610000 7.42212000 
0.18415500 9.82055000 7.41897000 
2.45102000 18.37860000 7.43326000 
3.13925000 17.13880000 7.43065000 
2.41170000 15.92210000 7.43012000 
3.09965000 14.68210000 7.42813000 
2.37179000 13.46560000 7.42693000 
3.05941000 12.22540000 7.42482000 
2.33109000 11.00910000 7.42238000 
3.01813000 9.76864000 7.41970000 
5.28346000 18.33080000 7.43047000 
4.55677000 17.11360000 7.42997000 
5.24425000 15.87320000 7.42881000 
4.51715000 14.65630000 7.42809000 
5.20435000 13.41580000 7.42709000 
4.47687000 12.19900000 7.42543000 
5.16364000 10.95830000 7.42400000 
4.43556000 9.74186000 7.42098000 
6.70090000 18.30580000 7.43065000 
7.38809000 17.06520000 7.43029000 
6.66168000 15.84780000 7.42944000 
7.34864000 14.60710000 7.42947000 
6.62176000 13.38990000 7.42815000 
7.30841000 12.14910000 7.42786000 
6.58103000 10.93220000 7.42556000 
7.26719000 9.69116000 7.42473000 
8.80548000 17.03990000 7.43205000 
8.76603000 14.58160000 7.43132000 
8.72579000 12.12360000 7.42978000 
8.68455000 9.66583000 7.42691000 
9.53112000 18.25780000 7.43357000 
9.49238000 15.79910000 7.43290000 
9.45274000 13.34070000 7.43190000 
9.41218000 10.88260000 7.42974000 
10.94850000 18.23260000 7.43656000 
11.63550000 16.99170000 7.43797000 
10.90980000 15.77380000 7.43575000 
11.59670000 14.53300000 7.43688000 
10.87010000 13.31560000 7.43440000 
11.55690000 12.07480000 7.43478000 
10.82960000 10.85780000 7.43194000 
11.51600000 9.61695000 7.43164000 
13.77760000 18.18510000 7.44446000 
13.05280000 16.96670000 7.44166000 
13.74000000 15.72600000 7.44304000 
13.01410000 14.50820000 7.43999000 
13.70120000 13.26760000 7.44048000 
12.97430000 12.05040000 7.43717000 
13.66130000 10.80980000 7.43676000 
12.93340000 9.59306000 7.43345000 
15.19490000 18.16070000 7.44846000 
15.88250000 16.92000000 7.44991000 
15.15740000 15.70170000 7.44650000 
15.84500000 14.46120000 7.44696000 
15.11870000 13.24360000 7.44310000 
15.80630000 12.00330000 7.44246000 
15.07880000 10.78630000 7.43851000 
15.76610000 9.54604000 7.43717000 
18.02360000 18.11560000 7.45651000 
17.29990000 16.89650000 7.45323000 
17.98780000 15.65620000 7.45371000 
17.26250000 14.43790000 7.44964000 
17.95050000 13.19790000 7.44889000 
17.22380000 11.98040000 7.44432000 
17.91170000 10.74040000 7.44264000 
19.44100000 18.09330000 7.45922000 
20.12930000 16.85310000 7.45991000 
19.40530000 15.63400000 7.45614000 
20.09370000 14.39410000 7.45562000 
19.36800000 13.17600000 7.45085000 
20.05640000 11.93620000 7.44922000 
19.32920000 10.71890000 7.44404000 
22.26930000 18.05250000 7.46491000 
21.54670000 16.83240000 7.46185000 
22.23550000 15.59260000 7.46193000 
21.51120000 14.37360000 7.45754000 
22.19990000 13.13400000 7.45646000 
21.47390000 11.91590000 7.45103000 
22.16240000 10.67640000 7.44916000 
23.68660000 18.03350000 7.46630000 
24.37580000 16.79390000 7.46727000 
23.65290000 15.57380000 7.46367000 
24.34200000 14.33430000 7.46359000 
23.61740000 13.11530000 7.45854000 
24.30630000 11.87590000 7.45749000 
23.57990000 10.65790000 7.45149000 
26.51450000 17.99780000 7.47146000 
25.79310000 16.77680000 7.46879000 
26.48260000 15.53740000 7.46995000 
25.75940000 14.31740000 7.46575000 
26.44860000 13.07820000 7.46590000 
25.72370000 11.85920000 7.46027000 
26.41260000 10.62000000 7.45961000 
27.93180000 17.98230000 7.47283000 
28.62170000 16.74320000 7.47526000 
27.89990000 15.52230000 7.47206000 
28.58960000 14.28320000 7.47356000 
27.86600000 13.06320000 7.46880000 
28.55530000 11.82420000 7.46926000 
27.83000000 10.60520000 7.46322000 
30.75970000 17.95130000 7.47950000 
30.03900000 16.72960000 7.47724000 
30.72920000 15.49070000 7.48000000 
30.00690000 14.26990000 7.47632000 
30.69670000 13.03100000 7.47796000 
29.97260000 11.81110000 7.47279000 
30.66200000 10.57220000 7.47333000 
32.17700000 17.93890000 7.48129000 
32.86770000 16.70040000 7.48504000 
32.14640000 15.47880000 7.48241000 
32.83680000 14.24030000 7.48509000 
32.11390000 13.01950000 7.48104000 
32.80390000 11.78090000 7.48240000 
32.07930000 10.56110000 7.47703000 
34.31400000 19.15000000 7.48434000 
35.00540000 17.91180000 7.48872000 
34.28500000 16.68960000 7.48697000 
34.97600000 15.45140000 7.49041000 
34.25410000 14.23000000 7.48749000 
34.94470000 12.99170000 7.48956000 
34.22110000 11.77120000 7.48528000 
34.91120000 10.53280000 7.48592000 
36.39330000 15.44220000 7.49197000 
36.36200000 12.98310000 7.49142000 
36.32840000 10.52480000 7.48812000 
37.14250000 19.12440000 7.49115000 
36.42270000 17.90190000 7.49004000 
37.11450000 16.66400000 7.49391000 
37.08460000 14.20420000 7.49454000 
37.05270000 11.74510000 7.49244000 
38.55980000 19.11510000 7.49179000 
39.25240000 17.87760000 7.49573000 
38.53180000 16.65550000 7.49455000 
39.22390000 15.41800000 7.49736000 
38.50190000 14.19640000 7.49528000 
39.19350000 12.95880000 7.49659000 
38.47000000 11.73800000 7.49339000 
39.16100000 10.50030000 7.49316000 
41.39020000 19.09180000 7.49612000 
40.66980000 17.86950000 7.49543000 
41.36290000 16.63250000 7.49823000 
40.64130000 15.41070000 7.49698000 
41.33380000 14.17350000 7.49843000 
40.61090000 12.95240000 7.49628000 
41.30270000 11.71510000 7.49622000 
40.57830000 10.49460000 7.49307000 
42.80770000 19.08390000 7.49493000 
43.50160000 17.84730000 7.49748000 
42.78030000 16.62550000 7.49678000 
43.47370000 15.38880000 7.49822000 
42.75120000 14.16740000 7.49691000 
43.44390000 12.93060000 7.49700000 
42.72010000 11.70990000 7.49485000 
43.41210000 10.47280000 7.49361000 
44.91920000 17.84030000 7.49514000 
44.89120000 15.38280000 7.49566000 
44.86140000 12.92550000 7.49449000 
44.82950000 10.46870000 7.49142000 
45.64050000 19.06220000 7.49561000 
45.61350000 16.60420000 7.49641000 
45.58490000 14.14640000 7.49581000 
45.55430000 11.68890000 7.49345000 
47.05820000 19.05500000 7.49264000 
47.75350000 17.81930000 7.49364000 
47.03110000 16.59800000 7.49308000 
47.72580000 15.36220000 7.49320000 
47.00240000 14.14130000 7.49240000 
47.69630000 12.90520000 7.49155000 
46.97180000 11.68480000 7.49028000 
47.66470000 10.44830000 7.48852000 
49.89370000 19.03390000 7.49068000 
49.17120000 17.81280000 7.48990000 
49.86690000 16.57750000 7.48993000 
49.14350000 15.35680000 7.48924000 
49.83830000 14.12110000 7.48853000 
49.11390000 12.90080000 7.48769000 
49.80780000 11.66480000 7.48626000 
49.08220000 10.44490000 7.48508000 
51.31160000 19.02690000 7.48695000 
52.00820000 17.79210000 7.48686000 
51.28460000 16.57160000 7.48582000 
51.98040000 15.33650000 7.48520000 
51.25600000 14.11630000 7.48435000 
51.95080000 12.88080000 7.48322000 
51.22540000 11.66100000 7.48235000 
51.91910000 10.42500000 7.48075000 
54.15000000 19.00580000 7.48483000 
53.42610000 17.78560000 7.48305000 
54.12290000 16.55090000 7.48244000 
53.39820000 15.33100000 7.48114000 
54.09400000 14.09600000 7.48021000 
53.36850000 12.87630000 7.47923000 
54.06310000 11.64080000 7.47802000 
53.33670000 10.42160000 7.47716000 
55.56810000 18.99850000 7.48169000 
56.26570000 17.76430000 7.48106000 
55.54080000 16.54470000 7.47891000 
56.23740000 15.31010000 7.47809000 
55.51180000 14.09080000 7.47655000 
56.20730000 12.85570000 7.47562000 
55.48090000 11.63660000 7.47454000 
56.17510000 10.40090000 7.47352000 
58.40900000 18.97650000 7.48152000 
57.68380000 17.75720000 7.47834000 
58.38120000 16.52310000 7.47752000 
57.65540000 15.30400000 7.47509000 
58.35170000 14.06940000 7.47431000 
57.62520000 12.85050000 7.47260000 
58.32020000 11.61530000 7.47189000 
57.59290000 10.39670000 7.47073000 
59.82720000 18.96830000 7.47969000 
60.52540000 17.73460000 7.47881000 
59.79940000 16.51580000 7.47535000 
60.49640000 15.28160000 7.47457000 
59.76970000 14.06310000 7.47197000 
60.46550000 12.82820000 7.47140000 
59.73810000 11.60990000 7.46960000 
60.43240000 10.37430000 7.46917000 
62.66990000 18.94460000 7.48169000 
61.94370000 17.72620000 7.47740000 
62.64140000 16.49240000 7.47647000 
61.91450000 15.27410000 7.47297000 
62.61100000 14.03960000 7.47234000 
61.88350000 12.82150000 7.46974000 
62.57850000 11.58630000 7.46940000 
61.85030000 10.36840000 7.46759000 
64.08830000 18.93480000 7.48073000 
64.78660000 17.70140000 7.47954000 
64.05960000 16.48340000 7.47539000 
64.75660000 15.24930000 7.47453000 
64.02910000 14.03140000 7.47122000 
64.72470000 12.79650000 7.47077000 
63.99650000 11.57890000 7.46830000 
64.69050000 10.34320000 7.46808000 
66.93210000 18.90870000 7.48281000 
66.20500000 17.69100000 7.47854000 
66.90250000 16.45710000 7.47728000 
66.17490000 15.23950000 7.47360000 
66.87100000 14.00490000 7.47282000 
66.14280000 12.78750000 7.46991000 
66.83730000 11.55200000 7.46952000 
66.10850000 10.33480000 7.46729000 
68.35050000 18.89660000 7.48129000 
69.04850000 17.66300000 7.47950000 
68.32080000 16.44570000 7.47599000 
69.01730000 15.21120000 7.47469000 
68.28910000 13.99400000 7.47176000 
68.98410000 12.75870000 7.47098000 
68.25540000 11.54170000 7.46864000 
68.94870000 10.30550000 7.46806000 
71.19460000 18.86690000 7.48000000 
70.46690000 17.64980000 7.47724000 
71.16370000 16.41550000 7.47526000 
70.43550000 15.19850000 7.47283000 
71.13080000 13.96340000 7.47146000 
70.40220000 12.74650000 7.46949000 
71.09580000 11.51040000 7.46851000 
70.36660000 10.29360000 7.46681000 
72.61310000 18.85180000 7.47632000 
72.58200000 16.40090000 7.47206000 
72.54890000 13.94910000 7.46879000 
72.51380000 11.49650000 7.46630000 
73.31020000 17.61770000 7.47356000 
73.27750000 15.16590000 7.46995000 
73.24280000 12.71310000 7.46727000 
73.20600000 10.25950000 7.46491000 
75.45690000 18.81750000 7.46926000 
74.72850000 17.60100000 7.46880000 
75.42420000 16.36610000 7.46590000 
74.69560000 15.14960000 7.46575000 
75.38970000 13.91360000 7.46359000 
74.66080000 12.69710000 7.46367000 
75.35320000 11.46020000 7.46193000 
74.62390000 10.24380000 7.46185000 
76.87530000 18.79890000 7.46322000 
77.57110000 17.56400000 7.45961000 
76.84240000 16.34780000 7.46027000 
77.53660000 15.11190000 7.45749000 
76.80770000 13.89560000 7.45854000 
77.50030000 12.65870000 7.45646000 
76.77110000 11.44240000 7.45754000 
77.46210000 10.20460000 7.45562000 
79.71840000 18.75960000 7.45243000 
78.98940000 17.54370000 7.45324000 
79.68370000 16.30790000 7.45000000 
78.95460000 15.09190000 7.45149000 
79.64730000 13.85510000 7.44916000 
78.91810000 12.63900000 7.45103000 
79.60930000 11.40130000 7.44922000 
78.87990000 10.18520000 7.45085000 
81.13670000 18.73740000 7.44647000 
81.83120000 17.50170000 7.44302000 
81.10180000 16.28600000 7.44406000 
81.79470000 15.04930000 7.44164000 
81.06530000 13.83350000 7.44351000 
81.75670000 12.59600000 7.44190000 
81.02710000 11.38010000 7.44404000 
81.71730000 10.14180000 7.44264000 
83.97920000 18.69350000 7.43866000 
83.24930000 17.47830000 7.43837000 
83.94240000 16.24170000 7.43598000 
83.21270000 15.02630000 7.43689000 
83.90440000 13.78880000 7.43549000 
83.17460000 12.57330000 7.43724000 
83.86510000 11.33510000 7.43635000 
83.13500000 10.11960000 7.43825000 
85.39740000 18.66900000 7.43617000 
86.09070000 17.43250000 7.43383000 
85.36050000 16.21740000 7.43308000 
86.05250000 14.98010000 7.43177000 
85.32230000 13.76490000 7.43227000 
86.01320000 12.52700000 7.43166000 
85.28290000 11.31180000 7.43292000 
85.97280000 10.07330000 7.43237000 
88.23920000 18.62230000 7.43560000 
87.50880000 17.40740000 7.43312000 
88.20090000 16.17020000 7.43161000 
87.47040000 14.95520000 7.43046000 
88.16170000 13.71750000 7.42974000 
87.43110000 12.50260000 7.42974000 
88.12150000 11.26440000 7.42927000 
87.39060000 10.04950000 7.42987000 
89.65730000 18.59680000 7.43658000 
90.34950000 17.35960000 7.43459000 
89.61900000 16.14480000 7.43199000 
90.31030000 14.90710000 7.43075000 
89.57960000 13.69230000 7.42933000 
90.27030000 12.45430000 7.42846000 
89.53930000 11.23970000 7.42793000 
90.22940000 10.00130000 7.42682000 
92.49800000 18.54910000 7.43914000 
91.76760000 17.33410000 7.43584000 
92.45890000 16.09640000 7.43377000 
91.72830000 14.88150000 7.43133000 
92.41910000 13.64360000 7.42971000 
91.68830000 12.42890000 7.42810000 
92.37860000 11.19060000 7.42639000 
91.64730000 9.97616000 7.42533000 
93.91600000 18.52370000 7.44022000 
94.60710000 17.28580000 7.43725000 
93.87690000 16.07070000 7.43454000 
94.56760000 14.83260000 7.43207000 
93.83710000 13.61770000 7.42985000 
94.52740000 12.37940000 7.42746000 
93.79650000 11.16470000 7.42556000 
94.48620000 9.92610000 7.42266000 
96.75460000 18.47600000 7.43969000 
96.02500000 17.26040000 7.43743000 
96.71530000 16.02200000 7.43425000 
95.98550000 14.80670000 7.43211000 
96.67540000 13.56810000 7.42921000 
95.94520000 12.35310000 7.42701000 
96.63480000 11.11420000 7.42378000 
95.90400000 9.89954000 7.42135000 
98.17240000 18.45100000 7.43885000 
98.86210000 17.21220000 7.43524000 
98.13310000 15.99640000 7.43372000 
98.82250000 14.75740000 7.43062000 
98.09320000 13.54180000 7.42877000 
98.78230000 12.30270000 7.42561000 
98.05250000 11.08740000 7.42309000 
98.74110000 9.84790000 7.41928000 
1.17450000 28.22830000 7.46161000 
0.45068900 27.00950000 7.45927000 
1.14298000 25.77180000 7.45370000 
0.41765500 24.55390000 7.45164000 
1.10856000 23.31550000 7.44612000 
0.38194100 22.09830000 7.44454000 
1.07177000 20.85940000 7.43972000 
0.34422900 19.64270000 7.43865000 
2.59227000 28.20540000 7.46104000 
3.28440000 26.96740000 7.45493000 
2.56071000 25.74860000 7.45213000 
3.25140000 24.51000000 7.44615000 
2.52625000 23.29180000 7.44403000 
3.21575000 22.05270000 7.43892000 
2.48943000 20.83520000 7.43766000 
3.17812000 19.59560000 7.43386000 
5.42399000 28.16400000 7.45759000 
4.70200000 26.94420000 7.45388000 
5.39253000 25.70530000 7.44766000 
4.66897000 24.48630000 7.44458000 
5.35825000 23.24680000 7.43936000 
4.63330000 22.02860000 7.43730000 
5.32167000 20.78870000 7.43363000 
4.59566000 19.57100000 7.43259000 
6.84145000 28.14070000 7.45712000 
7.53182000 26.90140000 7.45095000 
6.80997000 25.68150000 7.44695000 
7.49911000 24.44170000 7.44186000 
6.77569000 23.22260000 7.43874000 
7.46387000 21.98240000 7.43535000 
6.73911000 20.76400000 7.43336000 
7.42665000 19.52360000 7.43175000 
8.94912000 26.87750000 7.45103000 
8.91643000 24.41730000 7.44237000 
8.88121000 21.95770000 7.43639000 
8.84402000 19.49860000 7.43324000 
9.66916000 28.09840000 7.45548000 
9.63816000 25.63740000 7.44631000 
9.60452000 23.17690000 7.43939000 
9.56866000 20.71700000 7.43530000 
11.08630000 28.07440000 7.45595000 
11.77530000 26.83400000 7.45179000 
11.05530000 25.61290000 7.44762000 
11.74340000 24.37220000 7.44515000 
11.02180000 23.15200000 7.44154000 
11.70920000 21.91120000 7.44093000 
10.98600000 20.69190000 7.43806000 
11.67310000 19.45100000 7.43889000 
13.91040000 28.03180000 7.45706000 
13.19230000 26.80960000 7.45332000 
13.88040000 25.56870000 7.45137000 
13.16060000 24.34750000 7.44781000 
13.84810000 23.10640000 7.44759000 
13.12640000 21.88630000 7.44444000 
13.81370000 20.64530000 7.44558000 
13.09040000 19.42600000 7.44276000 
15.32730000 28.00770000 7.45827000 
16.01550000 26.76660000 7.45682000 
15.29750000 25.54430000 7.45386000 
15.98520000 24.30320000 7.45392000 
15.26530000 23.08200000 7.45109000 
15.95280000 21.84090000 7.45238000 
15.23100000 20.62070000 7.44962000 
15.91840000 19.37990000 7.45141000 
18.14880000 27.96620000 7.46081000 
17.43250000 26.74290000 7.45864000 
18.12050000 25.50170000 7.45891000 
17.40230000 24.27940000 7.45676000 
18.09010000 23.03840000 7.45808000 
17.37000000 21.81720000 7.45585000 
18.05770000 20.57630000 7.45763000 
17.33570000 19.35620000 7.45504000 
19.56570000 27.94330000 7.46185000 
20.25410000 26.70220000 7.46226000 
19.53750000 25.47890000 7.46079000 
20.22570000 24.23800000 7.46209000 
19.50720000 23.01570000 7.46055000 
20.19540000 21.77500000 7.46229000 
19.47500000 20.55380000 7.46038000 
20.16320000 19.31340000 7.46192000 
22.38630000 27.90470000 7.46434000 
21.67110000 26.68060000 7.46326000 
22.35970000 25.43990000 7.46453000 
21.64280000 24.21670000 7.46352000 
22.33140000 22.97610000 7.46525000 
21.61260000 21.75400000 7.46401000 
22.30120000 20.51370000 7.46572000 
21.58060000 19.29250000 7.46380000 
23.80320000 27.88440000 7.46479000 
24.49250000 26.64390000 7.46602000 
23.77680000 25.41990000 7.46518000 
24.46600000 24.17960000 7.46693000 
23.74860000 22.95660000 7.46610000 
24.43770000 21.71650000 7.46806000 
23.71850000 20.49440000 7.46681000 
24.40770000 19.25460000 7.46851000 
26.62430000 27.84980000 7.46735000 
25.90960000 26.62520000 7.46629000 
26.59950000 25.38530000 7.46808000 
25.88320000 24.16150000 7.46729000 
26.57290000 22.92170000 7.46952000 
25.85500000 21.69880000 7.46864000 
26.54460000 20.45920000 7.47098000 
25.82500000 19.23720000 7.46949000 
28.04150000 27.83240000 7.46759000 