POSCAR file written by OVITO
1
117.156456 0.0 0.0
-58.578228 101.4604645 0.0
0.0 0.0 40.0
C Si 
4538 4538 
Cartesian
-56.4818802 100.1733246 20.0
-54.3191681 101.3466721 20.0
-54.3844109 98.8883744 20.0
-52.2217026 100.0643234 20.0
-50.0600395 101.2445679 20.0
-54.4473725 96.4313584 20.0
-52.2846642 97.6073914 20.0
-50.1219902 98.7867203 20.0
-47.9604074 99.9707032 20.0
-45.8006287 101.1596375 20.0
-52.3444519 95.1518555 20.0
-50.1821594 96.3311386 20.0
-48.0197296 97.5140152 20.0
-45.8585626 98.701828 20.0
-43.6989746 99.8943558 20.0
-41.5412865 101.0917053 20.0
-52.3995247 92.6976471 20.0
-50.2384415 93.8769226 20.0
-48.0764313 95.0595322 20.0
-45.9148636 96.2462387 20.0
-43.7541008 97.4377747 20.0
-41.5949631 98.6338883 20.0
-39.4372559 99.8340836 20.0
-37.2815399 101.038208 20.0
-50.2902069 91.424263 20.0
-48.1294746 92.6067276 20.0
-45.9681016 93.7930832 20.0
-43.807209 94.9834824 20.0
-41.6469956 96.1781693 20.0
-39.4885559 97.3772431 20.0
-37.331337 98.5800781 20.0
-35.1758118 99.786438 20.0
-33.0219498 100.995865 20.0
-50.3372612 88.9725418 20.0
-48.1776314 90.1555252 20.0
-46.0175018 91.3414536 20.0
-43.8570862 92.5311508 20.0
-41.696888 93.7245865 20.0
-39.5378304 94.9223404 20.0
-37.3800507 96.12397 20.0
-35.2235146 97.3291168 20.0
-33.0683899 98.5376129 20.0
-30.9145242 99.7487793 20.0
-28.762228 100.9624864 20.0
-48.2214966 87.7052078 20.0
-46.0626602 88.8912582 20.0
-43.903103 90.0801544 20.0
-41.7435036 91.2728043 20.0
-39.5845948 92.4692917 20.0
-37.4266091 93.6697159 20.0
-35.2695313 94.873726 20.0
-33.1137581 96.0810318 20.0
-30.9592114 97.2912369 20.0
-28.8057499 98.5038834 20.0
-26.653553 99.7188034 20.0
-24.5023747 100.9354936 20.0
-48.2604294 85.2553711 20.0
-46.1034241 86.4416809 20.0
-43.9450608 87.6304474 20.0
-41.7865792 88.8223648 20.0
-39.6281891 90.0179749 20.0
-37.470501 91.2172928 20.0
-35.3132172 92.4199524 20.0
-33.1574173 93.6261139 20.0
-31.0022888 94.8350601 20.0
-28.8483182 96.0467377 20.0
-26.6955319 97.2607269 20.0
-24.5436669 98.4767685 20.0
-22.3926792 99.6944886 20.0
-20.2425556 100.9136734 20.0
-46.1400681 83.9928284 20.0
-43.9833222 85.1815643 20.0
-41.8258782 86.3732376 20.0
-39.6683045 87.5679474 20.0
-37.510891 88.7660828 20.0
-35.3543358 89.967682 20.0
-33.1986656 91.1726074 20.0
-31.0436173 92.3804321 20.0
-28.8895684 93.5909958 20.0
-26.7363739 94.804039 20.0
-24.584074 96.0191956 20.0
-22.4325505 97.2361832 20.0
-20.2819386 98.4547043 20.0
-18.1320782 99.6746216 20.0
-15.9827672 100.8955384 20.0
-46.1730194 81.5441437 20.0
-44.0176506 82.7334442 20.0
-41.8615074 83.9248124 20.0
-39.704792 85.1188965 20.0
-37.548481 86.3161698 20.0
-35.3924065 87.5166626 20.0
-33.2369537 88.7202759 20.0
-31.0824223 89.9270172 20.0
-28.9284554 91.1364975 20.0
-26.7753735 92.3485184 20.0
-24.6229325 93.5627289 20.0
-22.4714165 94.7788544 20.0
-20.3204727 95.996727 20.0
-18.1703491 97.2159653 20.0
-16.0207481 98.4364777 20.0
-13.8716546 99.6579209 20.0
-11.7230492 100.8802186 20.0
-44.0486221 80.2855454 20.0
-41.8937874 81.477089 20.0
-39.7383766 82.6707382 20.0
-37.5827294 83.8671876 20.0
-35.4275551 85.0667038 20.0
-33.272728 86.2692566 20.0
-31.1184692 87.4748001 20.0
-28.9648418 88.6831208 20.0
-26.8122578 89.8941422 20.0
-24.6600018 91.107254 20.0
-22.5084934 92.3225327 20.0
-20.3578358 93.5395737 20.0
-18.2076092 94.758194 20.0
-16.0579491 95.978058 20.0
-13.9086742 97.1991043 20.0
-11.7598887 98.4209824 20.0
-9.6114187 99.6436081 20.0
-7.4633026 100.8667604 20.0
-44.0764236 77.8378144 20.0
-41.9229202 79.02948 20.0
-39.7685395 80.222992 20.0
-37.6141091 81.4189148 20.0
-35.4596138 82.6175766 20.0
-33.3054581 83.81913 20.0
-31.1517048 85.0235443 20.0
-28.998768 86.2307968 20.0
-26.8465748 87.440651 20.0
-24.6946793 88.652771 20.0
-22.5437565 89.8670884 20.0
-20.3932934 91.083313 20.0
-18.24333 92.3011093 20.0
-16.0938778 93.5204239 20.0
-13.9447756 94.7408219 20.0
-11.7959643 95.9622726 20.0
-9.6476374 97.1845169 20.0
-7.4994393 98.4074097 20.0
-5.3514719 99.6307678 20.0
-3.2036543 100.8544618 20.0
-41.949257 76.5821533 20.0
-39.7961579 77.7756577 20.0
-37.6425324 78.9712068 20.0
-35.4889107 80.1691742 20.0
-33.3353691 81.3697891 20.0
-31.1824894 82.5732193 20.0
-29.030077 83.7793198 20.0
-26.8784008 84.9881058 20.0
-24.7272702 86.1992035 20.0
-22.5766278 87.4125061 20.0
-20.4265747 88.6277466 20.0
-18.2770233 89.844803 20.0
-16.128027 91.0632935 20.0
-13.9792042 92.2831192 20.0
-11.8309479 93.5040131 20.0
-9.6828509 94.725853 20.0
-7.5349069 95.9483566 20.0
-5.3871007 97.1714783 20.0
-3.2394135 98.394989 20.0
-1.0917286 99.6187668 20.0
1.0559484 100.842659 20.0
-41.9732056 74.1347656 20.0
-39.8210984 75.3285599 20.0
-37.6685334 76.5239411 20.0
-35.515564 77.7213059 20.0
-33.3630829 78.9212266 20.0
-31.210659 80.1235809 20.0
-29.0588398 81.328598 20.0
-26.9077148 82.5362778 20.0
-24.7571278 83.7463455 20.0
-22.6070481 84.958603 20.0
-20.4577503 86.1730423 20.0
-18.3087387 87.3891068 20.0
-16.1602707 88.6068878 20.0
-14.0120678 89.8259201 20.0
-11.8642074 91.046257 20.0
-9.716589 92.2675018 20.0
-7.5690718 93.489624 20.0
-5.4217325 94.7123795 20.0
-3.2743614 95.9356384 20.0
-1.1270696 97.1592407 20.0
1.0203116 98.3830414 20.0
3.1678028 99.6069031 20.0
5.315474 100.8306809 20.0
-39.8439178 72.8815614 20.0
-37.6922074 74.0769577 20.0
-35.5401993 75.2739029 20.0
-33.3881951 76.4730377 20.0
-31.2365341 77.6745453 20.0
-29.0854187 78.878685 20.0
-26.934744 80.0852127 20.0
-24.7847328 81.2942352 20.0
-22.6353894 82.5055619 20.0
-20.4864598 83.7188187 20.0
-18.3381462 84.934082 20.0
-16.1902332 86.1509018 20.0
-14.0426998 87.369278 20.0
-11.8955164 88.5888443 20.0
-9.7484503 89.809578 20.0
-7.6016851 91.0311584 20.0
-5.454844 92.2534943 20.0
-3.3082094 93.4764176 20.0
-1.1614482 94.6997605 20.0
0.9853594 95.9234086 20.0
3.1323736 97.1471787 20.0
5.2796078 98.3709412 20.0
7.4270811 99.5945664 20.0
9.5749007 100.8178787 20.0
-39.8647346 70.4345703 20.0
-37.7139435 71.6299744 20.0
-35.5627747 72.8268509 20.0
-33.4114037 74.025322 20.0
-31.2603436 75.22612 20.0
-29.1096954 76.4292374 20.0
-26.9594976 77.6347504 20.0
-24.8100357 78.8427048 20.0
-22.6611576 80.0529022 20.0
-20.5128174 81.2652054 20.0
-18.3652115 82.479477 20.0
-16.2179909 83.6955109 20.0
-14.0711832 84.913002 20.0
-11.9246026 86.1319199 20.0
-9.7784367 87.3519364 20.0
-7.632217 88.5729676 20.0
-5.4864078 89.7948227 20.0
-3.3403778 91.017334 20.0
-1.194459 92.2403488 20.0
0.9516622 93.4637299 20.0
3.0979245 94.6873245 20.0
5.2444577 95.910988 20.0
7.3912716 97.1345978 20.0
9.5384732 98.3580017 20.0
11.6860943 99.5810471 20.0
13.8341723 100.8035965 20.0
-37.7339173 69.1831055 20.0
-35.583458 70.3797836 20.0
-33.4327698 71.5779877 20.0
-31.2822933 72.7781143 20.0
-29.1321182 73.9804002 20.0
-26.98242 75.1848984 20.0
-24.8335114 76.391861 20.0
-22.68499 77.6008988 20.0
-20.5374279 78.8122635 20.0
-18.3902245 80.0255127 20.0
-16.243597 81.2405243 20.0
-14.0974045 82.4572296 20.0
-11.951704 83.6753006 20.0
-9.8060837 84.8946382 20.0
-7.660965 86.115036 20.0
-5.5157604 87.3363419 20.0
-3.3707237 88.5583496 20.0
-1.2256278 89.780983 20.0
0.919578 91.0040054 20.0
3.0649414 92.2273483 20.0
5.2106176 93.4508286 20.0
7.3564921 94.6743469 20.0
9.5028868 95.897728 20.0
11.6496048 97.1208725 20.0
13.7969265 98.3435745 20.0
15.9447756 99.5656815 20.0
18.0933552 100.7869644 20.0
-37.7525254 66.736229 20.0
-35.6026383 67.9329758 20.0
-33.4525528 69.1308823 20.0
-31.3024387 70.3303909 20.0
-29.1527786 71.5318756 20.0
-27.0035248 72.7354965 20.0
-24.855032 73.9414216 20.0
-22.7070599 75.1494675 20.0
-20.5598088 76.3597107 20.0
-18.4131832 77.57193 20.0
-16.2671433 78.7860642 20.0
-14.1217156 80.0018311 20.0
-11.9764968 81.2190704 20.0
-9.8319264 82.4376374 20.0
-7.6873832 83.6573715 20.0
-5.5432163 84.878029 20.0
-3.3990071 86.0995331 20.0
-1.2549052 87.3216477 20.0
0.8894714 88.5442581 20.0
3.0337784 89.7672577 20.0
5.178297 90.9905014 20.0
7.3232923 92.2138138 20.0
9.4684935 93.4371109 20.0
11.6142264 94.6602097 20.0
13.7604389 95.8829498 20.0
15.9073106 97.1051865 20.0
18.0547848 98.3267822 20.0
20.2031193 99.5474777 20.0
22.3522568 100.7671585 20.0
-35.6205483 65.4862061 20.0
-33.4708977 66.6839524 20.0
-31.3213577 67.8830262 20.0
-29.1719837 69.083786 20.0
-27.0232143 70.286583 20.0
-24.8749294 71.4914398 20.0
-22.7273941 72.6984864 20.0
-20.5805607 73.907692 20.0
-18.4344712 75.1189652 20.0
-16.2889214 76.3320007 20.0
-14.1440382 77.5468827 20.0
-11.9995814 78.7631912 20.0
-9.8555708 79.9809952 20.0
-7.7119117 81.1998978 20.0
-5.568419 82.4199219 20.0
-3.4252038 83.6407624 20.0
-1.2818828 84.8623428 20.0
0.8612406 86.0844955 20.0
3.0045836 87.3070908 20.0
5.1479893 88.5299988 20.0
7.2917633 89.7530518 20.0
9.435833 90.9761354 20.0
11.5803128 92.1990814 20.0
13.7252951 93.4217682 20.0
15.8708926 94.6440583 20.0
18.0171757 95.8657684 20.0
20.1641903 97.0867615 20.0
22.3121834 98.3067474 20.0
24.4610501 99.5256348 20.0
26.6110726 100.7429276 20.0
-35.6373024 63.039444 20.0
-33.4882241 64.2371521 20.0
-31.3389778 65.4358597 20.0
-29.1900463 66.636055 20.0
-27.04146 67.8379975 20.0
-24.8935108 69.0419235 20.0
-22.7461987 70.2479324 20.0
-20.5996933 71.4560776 20.0
-18.4539871 72.666275 20.0
-16.308939 73.8783876 20.0
-14.1645079 75.092186 20.0
-12.0206366 76.307663 20.0
-9.8772994 77.5245133 20.0
-7.7342925 78.7426911 20.0
-5.5917273 79.9619294 20.0
-3.4491995 81.1821213 20.0
-1.307048 82.4031067 20.0
0.8352242 83.624733 20.0
2.9774302 84.8468476 20.0
5.1197577 86.0693436 20.0
7.262301 87.292038 20.0
9.4051695 88.5147934 20.0
11.5483561 89.737526 20.0
13.6919222 90.960083 20.0
15.8361254 92.1822968 20.0
17.9809362 93.4040451 20.0
20.1265812 94.6251221 20.0
22.2729492 95.845398 20.0
24.4204083 97.0644836 20.0
26.5688095 98.2823334 20.0
28.7184944 99.4985428 20.0
30.869465 100.7129135 20.0
-33.5045243 61.7904129 20.0
-31.3556919 62.9888764 20.0
-29.2069817 64.1885834 20.0
-27.0586453 65.3897629 20.0
-24.9108448 66.5927964 20.0
-22.7638932 67.797905 20.0
-20.6175099 69.0048981 20.0
-18.4721222 70.2140656 20.0
-16.3274136 71.4250717 20.0
-14.1833716 72.6379013 20.0
-12.0400124 73.8523484 20.0
-9.8971958 75.0683594 20.0
-7.7549691 76.2856445 20.0
-5.6129508 77.5041199 20.0
-3.4714945 78.7236023 20.0
-1.3301515 79.9439774 20.0
0.8111196 81.1649628 20.0
2.95236 82.3865509 20.0
5.0935388 83.6085358 20.0
7.2349234 84.8307877 20.0
9.3764496 86.0531998 20.0
11.5183974 87.2756043 20.0
13.6605854 88.4979248 20.0
15.8033238 89.7199784 20.0
17.9466438 90.9416276 20.0
20.09058 92.1627045 20.0
22.2353706 93.3829498 20.0
24.3809605 94.6022949 20.0
26.5277367 95.8203812 20.0
28.6755619 97.037117 20.0
30.8248139 98.2520371 20.0
32.9754486 99.464943 20.0
35.1277504 100.6753464 20.0
-33.5200539 59.3436089 20.0
-31.3715172 60.5420151 20.0
-29.2230606 61.7412873 20.0
-27.074852 62.941845 20.0
-24.9273148 64.144104 20.0
-22.7804261 65.3482056 20.0
-20.6342125 66.5541229 20.0
-18.4889546 67.7621613 20.0
-16.3444843 68.9721146 20.0
-14.2008324 70.1838989 20.0
-12.0578699 71.3973999 20.0
-9.9156314 72.6124192 20.0
-7.7738047 73.8288269 20.0
-5.6326766 75.0464706 20.0
-3.4918404 76.2652435 20.0
-1.3512725 77.4848099 20.0
0.7891058 78.7052002 20.0
2.9292966 79.9261476 20.0
5.0694523 81.1475906 20.0
7.2096372 82.3693466 20.0
9.3499794 83.5913239 20.0
11.4905472 84.8133545 20.0
13.6314345 86.0353317 20.0
15.7726822 87.2571335 20.0
17.9143678 88.4785614 20.0
20.0566883 89.69944 20.0
22.1996517 90.9196778 20.0
24.3436203 92.1390228 20.0
26.4882527 93.357338 20.0
28.6342392 94.5742874 20.0
30.7812863 95.7896958 20.0
32.9298974 97.0031052 20.0
35.0799408 98.2141876 20.0
37.2318115 99.4224549 20.0
39.3855438 100.6275864 20.0
-31.3867111 58.0952072 20.0
-29.2384339 59.2942352 20.0
-27.0903893 60.4942017 20.0
-24.9428272 61.6956215 20.0
-22.7960072 62.8987504 20.0
-20.6500511 64.1038437 20.0
-18.5048142 65.3107147 20.0
-16.3605232 66.5195618 20.0
-14.2171631 67.7303391 20.0
-12.0745087 68.9427262 20.0
-9.932664 70.1568222 20.0
-7.7913766 71.3722382 20.0
-5.6507054 72.5890503 20.0
-3.5104916 73.8068772 20.0
-1.3706349 75.0257568 20.0
0.7688435 76.245369 20.0
2.9081322 77.4657059 20.0
5.0472932 78.6865082 20.0
7.186409 79.9077378 20.0
9.3256912 81.1291733 20.0
11.4648896 82.3507843 20.0
13.6044417 83.5723648 20.0
15.7442484 84.7937622 20.0
17.8844472 86.0148544 20.0
20.0250416 87.2355118 20.0
22.1664047 88.4555664 20.0
24.3082066 89.6748657 20.0
26.4510651 90.8931428 20.0
28.5947933 92.1102829 20.0
30.7397785 93.3258209 20.0
32.8859024 94.539589 20.0
35.0336533 95.7511826 20.0
37.1829529 96.9602052 20.0
39.3342133 98.1662827 20.0
41.4875107 99.3688736 20.0
43.6430741 100.5672989 20.0
-31.4014053 55.6484604 20.0
-29.253273 56.8472444 20.0
-27.1052952 58.0467834 20.0
-24.957819 59.2475128 20.0
-22.8110333 60.4498368 20.0
-20.6649609 61.653759 20.0
-18.5198498 62.8596498 20.0
-16.3756218 64.0673752 20.0
-14.2323866 65.2770081 20.0
-12.0898953 66.4883118 20.0
-9.9483938 67.701355 20.0
-7.8074503 68.915825 20.0
-5.6673017 70.1316605 20.0
-3.5276337 71.3486939 20.0
-1.3885127 72.5666809 20.0
0.7502422 73.7856064 20.0
2.888757 75.0051498 20.0
5.0270891 76.2253189 20.0
7.1651855 77.4459229 20.0
9.3032131 78.6668473 20.0
11.4413557 79.8879166 20.0
13.5795546 81.108963 20.0
15.7180138 82.3299179 20.0
17.8566266 83.5506439 20.0
19.9956876 84.7709732 20.0
22.1352196 85.9907684 20.0
24.2754078 87.2098389 20.0
26.4161739 88.4280548 20.0
28.5579281 89.6450272 20.0
30.7004719 90.8606416 20.0
32.8443376 92.0745239 20.0
34.9894296 93.286499 20.0
37.1361618 94.4960099 20.0
39.2846527 95.7028885 20.0
41.4351273 96.906311 20.0
43.587822 98.1058426 20.0
45.7427712 99.3009644 20.0
47.90028 100.4910507 20.0
-29.2677403 54.4003983 20.0
-27.1198483 55.5995827 20.0
-24.9723492 56.799736 20.0
-22.8254357 58.0011063 20.0
-20.6793671 59.2041588 20.0
-18.5342331 60.4089584 20.0
-16.3899384 61.6155014 20.0
-14.2468062 62.8240586 20.0
-12.1044645 64.0342407 20.0
-9.9631176 65.2462158 20.0
-7.8225465 66.4596482 20.0
-5.6827164 67.6745301 20.0
-3.5435577 68.8905488 20.0
-1.4049918 70.1077576 20.0
0.7331639 71.3257523 20.0
2.8709978 72.5445862 20.0
5.0083528 73.7640534 20.0
7.1456213 74.9840012 20.0
9.2826643 76.2042694 20.0
11.419735 77.4247055 20.0
13.556736 78.6452179 20.0
15.6938648 79.8656694 20.0
17.8312035 81.0859375 20.0
19.9686414 82.3058777 20.0
22.106678 83.5253144 20.0
24.2449684 84.7441101 20.0
26.3839951 85.9619676 20.0
28.5234909 87.1787872 20.0
30.6639977 88.3942566 20.0
32.8054314 89.6082764 20.0
34.9481584 90.8203812 20.0
37.0920792 92.0303116 20.0
39.2376709 93.237526 20.0
41.3850708 94.4416352 20.0
43.5345803 95.6419602 20.0
45.6864739 96.8380203 20.0
47.8409004 98.0295639 20.0
49.998047 99.2160797 20.0
52.1576195 100.3972778 20.0
-29.2820168 51.9536096 20.0
-27.1341038 53.1525421 20.0
-24.986519 54.3521042 20.0
-22.8395082 55.5527611 20.0
-20.6933403 56.7548561 20.0
-18.5479851 57.9585152 20.0
-16.4037113 59.1640205 20.0
-14.2605429 60.3714256 20.0
-12.1182156 61.5804482 20.0
-9.9769822 62.791275 20.0
-7.836608 64.0036621 20.0
-5.6971083 65.217453 20.0
-3.5582536 66.4325409 20.0
-1.4201852 67.648758 20.0
0.7174609 68.8659668 20.0
2.8545006 70.0839767 20.0
4.9912376 71.3026962 20.0
7.1275864 72.5218888 20.0
9.2637606 73.7414551 20.0
11.3997326 74.961258 20.0
13.5356732 76.1811752 20.0
15.6717034 77.401062 20.0
17.8076706 78.6208115 20.0
19.9438344 79.840271 20.0
22.0802383 81.0592804 20.0
24.2169781 82.2775803 20.0
26.3541069 83.4951096 20.0
28.4918328 84.7116165 20.0
30.6302052 85.9269868 20.0
32.7695809 87.1408615 20.0
34.9096414 88.3530045 20.0
37.0511093 89.5630417 20.0
39.1937599 90.7705155 20.0
41.3382721 91.9750978 20.0
43.4845391 93.1761932 20.0
45.6330223 94.3732453 20.0
47.7841988 95.5661087 20.0
49.9379082 96.7537384 20.0
52.0946999 97.9364624 20.0
54.2539787 99.1144486 20.0
56.4155922 100.2883453 20.0
-27.1482487 50.7056084 20.0
-25.0005589 51.904747 20.0
-22.8533994 53.1046829 20.0
-20.7069741 54.3058357 20.0
-18.5615502 55.508564 20.0
-16.417141 56.712986 20.0
-14.2737255 57.9190788 20.0
-12.1314211 59.1269875 20.0
-9.9901858 60.3366127 20.0
-7.849928 61.5478211 20.0
-5.710702 62.7606583 20.0
-3.5721507 63.9746514 20.0
-1.4344114 65.1899567 20.0
0.7027267 66.4061737 20.0
2.8392944 67.623375 20.0
4.9753414 68.8411942 20.0
7.110992 70.0596237 20.0
9.2463179 71.2784348 20.0
11.3814173 72.4975586 20.0
13.5164404 73.7168045 20.0
15.6512757 74.9361116 20.0
17.7861214 76.1552887 20.0
19.9209766 77.3741837 20.0
22.056036 78.5926056 20.0
24.1912327 79.810463 20.0
26.3267269 81.027565 20.0
28.4626961 82.2437821 20.0
30.5993366 83.4588394 20.0
32.736351 84.6725388 20.0
34.8744126 85.8845596 20.0
37.0132217 87.0945053 20.0
39.1534042 88.3020859 20.0
41.2948952 89.5069886 20.0
43.4382668 90.7087784 20.0
45.5835457 91.9068452 20.0
47.7310944 93.1006165 20.0
49.8814622 94.289772 20.0
52.0346832 95.4740448 20.0
54.191143 96.6532364 20.0
56.3503113 97.8287506 20.0
58.511982 99.0014496 20.0
-27.162447 48.2587853 20.0
-25.0145969 49.4575577 20.0
-22.8672162 50.6568871 20.0
-20.7205715 51.8572084 20.0
-18.574894 53.0589523 20.0
-16.4301682 54.2621384 20.0
-14.2865944 55.4670906 20.0
-12.144187 56.6737862 20.0
-10.0028744 57.8821754 20.0
-7.8627544 59.0923538 20.0
-5.7234664 60.3038597 20.0
-3.5852127 61.516922 20.0
-1.4477067 62.7310906 20.0
0.6890394 63.9464456 20.0
2.8250847 65.1626129 20.0
4.9606424 66.3795929 20.0
7.0955887 67.5971756 20.0
9.2302942 68.8152161 20.0
11.3645172 70.0336227 20.0
13.4986153 71.2521973 20.0
15.6324826 72.4708328 20.0
17.7662258 73.6893463 20.0
19.8999062 74.9076004 20.0
22.0336685 76.1254654 20.0
24.1676521 77.3428192 20.0
26.301611 78.5594788 20.0
28.4361115 79.7752686 20.0
30.5707588 80.989998 20.0
32.7061272 82.2033691 20.0
34.8419762 83.4151383 20.0
36.9787446 84.6249695 20.0
39.1164322 85.8327103 20.0
41.2554054 87.0377884 20.0
43.3958664 88.2400589 20.0
45.5380974 89.4387741 20.0
47.682518 90.6337204 20.0
49.8294029 91.8241577 20.0
51.9792786 93.0098572 20.0
54.1322632 94.1912613 20.0
56.2886353 95.368248 20.0
58.4478226 96.5424805 20.0
60.6094094 97.7151261 20.0
-25.0287991 47.0105591 20.0
-22.8811474 48.2093391 20.0
-20.734232 49.4089432 20.0
-18.5881272 50.6095696 20.0
-16.4431458 51.811718 20.0
-14.2993202 53.0154419 20.0
-12.1567345 54.2209396 20.0
-10.0153227 55.4281426 20.0
-7.8750306 56.6369667 20.0
-5.7357612 57.8473358 20.0
-3.5976377 59.0592308 20.0
-1.4603414 60.2723923 20.0
0.6760744 61.4866066 20.0
2.8117113 62.7019005 20.0
4.9467732 63.9178886 20.0
7.0813065 65.1346054 20.0
9.2152519 66.3518372 20.0
11.3488102 67.5694809 20.0
13.4820891 68.7873154 20.0
15.6150666 70.005188 20.0
17.7478085 71.2229996 20.0
19.8805028 72.4406128 20.0
22.0132103 73.657898 20.0
24.1457672 74.8746948 20.0
26.2785664 76.0908508 20.0
28.4114952 77.3062058 20.0
30.5447674 78.5204773 20.0
32.6783028 79.7334824 20.0
34.8125916 80.9450302 20.0
36.9472352 82.1547852 20.0
39.0830231 83.3625717 20.0
41.2196312 84.5679627 20.0
43.357563 85.7704697 20.0
45.4971123 86.9699784 20.0
47.6386833 88.165802 20.0
49.7825318 89.3575745 20.0
51.929001 90.545044 20.0
54.0787582 91.7281647 20.0
56.2317886 92.9075546 20.0
58.3882866 94.0833588 20.0
60.5475273 95.2574234 20.0
-25.0432491 44.5636444 20.0
-22.895342 45.7620468 20.0
-20.7479973 46.9608574 20.0
-18.6015778 48.1606255 20.0
-16.4562321 49.3616524 20.0
-14.3120012 50.5641213 20.0
-12.1690903 51.768322 20.0
-10.0274925 52.9743004 20.0
-7.8870382 54.1818619 20.0
-5.7477494 55.3910065 20.0
-3.6096154 56.6017075 20.0
-1.4724686 57.8136368 20.0
0.6637469 59.0268288 20.0
2.7990835 60.2410317 20.0
4.9336902 61.4561806 20.0
7.0677323 62.6719246 20.0
9.2011766 63.8883248 20.0
11.3341475 65.1050873 20.0
13.4667082 66.3220825 20.0
15.5988798 67.5391999 20.0
17.730774 68.7563172 20.0
19.8625108 69.9732742 20.0
21.9941178 71.1899338 20.0
24.1257134 72.4061585 20.0
26.2572956 73.6217957 20.0
28.388979 74.836586 20.0
30.5208092 76.0504074 20.0
32.6529503 77.2630158 20.0
34.7854958 78.47435 20.0
36.918747 79.6840439 20.0
39.0524635 80.8918152 20.0
41.1871872 82.0972977 20.0
43.3229981 83.3003235 20.0
45.4602928 84.5002899 20.0
47.599247 85.6969834 20.0
49.7405091 86.8903352 20.0
51.8841134 88.0794144 20.0
54.0307465 89.2648468 20.0
56.1807747 90.4462128 20.0
58.3339653 91.6243134 20.0
60.4910012 92.800232 20.0
62.6504517 93.9755402 20.0
-22.9098836 43.3148956 20.0
-20.7621918 44.513115 20.0
-18.6152992 45.7119522 20.0
-16.4694653 46.911873 20.0
-14.3248949 48.1132393 20.0
-12.1816197 49.3161926 20.0
-10.0395956 50.5207253 20.0
-7.8989172 51.7269898 20.0
-5.7595387 52.9348832 20.0
-3.6213465 54.144249 20.0
-1.4843211 55.3551026 20.0
0.6518144 56.5670471 20.0
2.7870119 57.7801781 20.0
4.9213034 58.9942474 20.0
7.0549388 60.2091217 20.0
9.187891 61.4245491 20.0
11.3202706 62.6404305 20.0
13.4521599 63.8565942 20.0
15.5836649 65.072937 20.0
17.7148896 66.289299 20.0
19.8457376 67.5055771 20.0
21.9765302 68.7216034 20.0
24.1070919 69.937233 20.0
26.2376099 71.1522293 20.0
28.3681774 72.3665238 20.0
30.4987927 73.5798722 20.0
32.6296921 74.7922364 20.0
34.7609062 76.0032272 20.0
36.8925552 77.2128449 20.0
39.0248566 78.4205857 20.0
41.1578636 79.6263352 20.0
43.2919541 80.8296128 20.0
45.4272461 82.0303116 20.0
47.5642967 83.2282105 20.0
49.7030564 84.422554 20.0
51.8442726 85.6136475 20.0
53.9882356 86.8009339 20.0
56.1352005 87.984642 20.0
58.2859345 89.165184 20.0
60.4397774 90.3433991 20.0
62.5972672 91.5203629 20.0
-22.9250526 40.8679048 20.0
-20.7768555 42.0655708 20.0
-18.6295185 43.2636719 20.0
-16.483141 44.4625283 20.0
-14.3380079 45.6626435 20.0
-12.194232 46.864254 20.0
-10.0518389 48.0674858 20.0
-7.9108592 49.2723465 20.0
-5.7712231 50.478817 20.0
-3.6329959 51.6870194 20.0
-1.4958049 52.896454 20.0
0.64016 54.1073723 20.0
2.7752047 55.3193207 20.0
4.9093218 56.5323525 20.0
7.0426087 57.7461052 20.0
9.1751413 58.9605904 20.0
11.3070784 60.175499 20.0
13.4384184 61.3908615 20.0
15.5693722 62.606369 20.0
17.6998883 63.8219986 20.0
19.8300686 65.0375595 20.0
21.959982 66.2529144 20.0
24.0896759 67.4678498 20.0
26.2192879 68.6822815 20.0
28.3488503 69.8960648 20.0
30.4785309 71.1090851 20.0
32.6083908 72.3210983 20.0
34.7383385 73.5319138 20.0
36.868824 74.7413483 20.0
38.9997178 75.9491426 20.0
41.1314964 77.1550827 20.0
43.2640076 78.3588791 20.0
45.3977242 79.5601731 20.0
47.532917 80.7590103 20.0
49.6698571 81.9547654 20.0
51.8090019 83.1475525 20.0
53.9506494 84.3369064 20.0
56.0953293 85.5228501 20.0
58.2432251 86.7060776 20.0
60.3945351 87.8864822 20.0
62.5490685 89.0656433 20.0
64.706749 90.244339 20.0
-20.7922478 39.6182785 20.0
-18.6442662 40.8155861 20.0
-16.4973393 42.0135117 20.0
-14.3515854 43.2124138 20.0
-12.2072649 44.4127426 20.0
-10.0643978 45.6145134 20.0
-7.9229922 46.8179245 20.0
-5.7831464 48.0231361 20.0
-3.6445427 49.2297669 20.0
-1.5073453 50.438057 20.0
0.6287161 51.6476174 20.0
2.7636748 52.8584366 20.0
4.8976098 54.0702286 20.0
7.0306482 55.2829437 20.0
9.1628523 56.4963646 20.0
11.2944269 57.7103729 20.0
13.4252901 58.9248238 20.0
15.555707 60.1395378 20.0
17.6856327 61.3543854 20.0
19.8151608 62.5692024 20.0
21.9443378 63.7838135 20.0
24.0733337 64.9981308 20.0
26.2021446 66.2120209 20.0
28.3309021 67.425354 20.0
30.4597435 68.6379776 20.0
32.5885239 69.8496628 20.0
34.7176399 71.0603104 20.0
36.846985 72.2696381 20.0
38.9768982 73.4774399 20.0
41.1074028 74.683693 20.0
43.2387848 75.8879014 20.0
45.3712196 77.0901794 20.0
47.5050431 78.2899933 20.0
49.6404076 79.4871521 20.0
51.7778321 80.6814499 20.0
53.917698 81.8728714 20.0
56.0602188 83.0613098 20.0
58.2058754 84.2468262 20.0
60.3545151 85.429802 20.0
62.5066757 86.6110001 20.0
64.6616135 87.7915421 20.0
-20.8084336 37.1711578 20.0
-18.6598854 38.3678627 20.0
-16.5122261 39.5648232 20.0
-14.365859 40.7626152 20.0
-12.220891 41.9615402 20.0
-10.0774641 43.1619339 20.0
-7.9355812 44.3639107 20.0
-5.7951923 45.5674935 20.0
-3.6563797 46.7728348 20.0
-1.5189199 47.9796678 20.0
0.6172536 49.1879311 20.0
2.7521887 50.3973808 20.0
4.8860092 51.6080246 20.0
7.018846 52.8195992 20.0
9.1507826 54.0320625 20.0
11.2820349 55.2450295 20.0
13.4125624 56.4585839 20.0
15.5425282 57.6724167 20.0
17.6719322 58.8864404 20.0
19.8008728 60.1004677 20.0
21.9295484 61.3143997 20.0
24.0578918 62.5281296 20.0
26.1860371 63.7414971 20.0
28.314106 64.954384 20.0
30.4420681 66.1666031 20.0
32.5701828 67.3780441 20.0
34.6984215 68.588501 20.0
36.8269882 69.79776 20.0
38.9559898 71.0058594 20.0
41.085598 72.2122955 20.0
43.2159882 73.4172516 20.0
45.3473969 74.6201477 20.0
47.4799919 75.8210526 20.0
49.6142273 77.0195084 20.0
51.7502632 78.2154389 20.0
53.8885574 79.4089661 20.0
56.0293236 80.5995636 20.0
58.1728211 81.7874527 20.0
60.3195 82.972931 20.0
62.4690743 84.1564941 20.0
64.6220398 85.3389893 20.0
66.7773819 86.5215683 20.0
-18.6764107 35.9203568 20.0
-16.5280953 37.1165009 20.0
-14.3809271 38.3130837 20.0
-12.2352657 39.510727 20.0
-10.0910807 40.7095795 20.0
-7.9485942 41.9100572 20.0
-5.8077183 43.1121521 20.0
-3.6684997 44.3160095 20.0
-1.5307428 45.5213661 20.0
0.6055498 46.7281761 20.0
2.7404998 47.9364166 20.0
4.8743682 49.1457024 20.0
7.0070763 50.3562088 20.0
9.1389265 51.567421 20.0
11.2698755 52.7794838 20.0
13.4001227 53.9920274 20.0
15.5296517 55.2049713 20.0
17.6586132 56.4181328 20.0
19.7871685 57.6314049 20.0
21.9152738 58.844696 20.0
24.0430908 60.0578423 20.0
26.1706696 61.2707138 20.0
28.29813 62.4831734 20.0
30.4255257 63.6950531 20.0
32.5529824 64.90625 20.0
34.6806259 66.1166153 20.0
36.8084641 67.3259888 20.0
38.9367868 68.5341797 20.0
41.0656548 69.741211 20.0
43.1953087 70.94664 20.0
45.3258095 72.1504211 20.0
47.4576302 73.352272 20.0
49.5908165 74.5521164 20.0
51.7257729 75.7497254 20.0
53.862732 76.945099 20.0
56.0019379 78.1376877 20.0
58.1438141 79.3279572 20.0
60.2884293 80.5159073 20.0
62.4362297 81.7018662 20.0
64.5868378 82.8866196 20.0
66.7403794 84.0707245 20.0
-18.6942463 33.4730797 20.0
-16.5450211 34.6683846 20.0
-14.3970757 35.8639374 20.0
-12.2504959 37.0602036 20.0
-10.1055832 38.2576714 20.0
-7.9623456 39.4565506 20.0
-5.8208981 40.6571312 20.0
-3.681154 41.859337 20.0
-1.5430303 43.0630646 20.0
0.5935116 44.2684479 20.0
2.7286792 45.4752198 20.0
4.8625736 46.6832772 20.0
6.9952798 47.8925134 20.0
9.1269922 49.1026802 20.0
11.2577801 50.3136177 20.0
13.3877163 51.5251541 20.0
15.5169382 52.7371712 20.0
17.6455651 53.9495506 20.0
19.7737217 55.1620789 20.0
21.9014072 56.374733 20.0
24.0288029 57.5873032 20.0
26.1559448 58.7996941 20.0
28.2828999 60.0117264 20.0
30.4098225 61.2233276 20.0
32.536789 62.4343682 20.0
34.6638527 63.6446991 20.0
36.7912369 64.8541718 20.0
38.9189912 66.0627518 20.0
41.0473404 67.270134 20.0
43.1763153 68.4762268 20.0
45.3063469 69.680893 20.0
47.4373741 70.8838502 20.0
49.5698548 72.0851288 20.0
51.7038269 73.2842178 20.0
53.839718 74.4813156 20.0
55.9777146 75.6761017 20.0
58.1180878 76.8685304 20.0
60.261261 78.0587997 20.0
62.4071045 79.2472153 20.0
64.5558625 80.4339447 20.0
66.7071457 81.6199646 20.0
68.8610002 82.8058396 20.0
-16.5634098 32.2206116 20.0
-14.4144049 33.4151192 20.0
-12.2669582 34.6101532 20.0
-10.1210795 35.806099 20.0
-7.9770632 37.0034676 20.0
-5.8348923 38.2023125 20.0
-3.6945734 39.4028168 20.0
-1.5560205 40.6050415 20.0
0.5809347 41.8088074 20.0
2.7163341 43.0141602 20.0
4.8504076 44.2207871 20.0
6.9831706 45.4287567 20.0
9.114851 46.6376686 20.0
11.2454529 47.8475076 20.0
13.3752356 49.0579834 20.0
15.5042353 50.2691383 20.0
17.6326409 51.480629 20.0
19.760479 52.6924744 20.0
21.8878594 53.90448 20.0
24.0148983 55.1165199 20.0
26.1416378 56.3284149 20.0
28.2682343 57.5401078 20.0
30.3947601 58.7514801 20.0
32.5213585 59.962452 20.0
34.6480751 61.1728058 20.0
36.7750435 62.382515 20.0
38.9024392 63.5913849 20.0
41.0303116 64.7993012 20.0
43.158989 66.0060959 20.0
45.2884369 67.2116318 20.0
47.4190064 68.4156189 20.0
49.5507889 69.6181946 20.0
51.6840973 70.8189469 20.0
53.8190766 72.0176926 20.0
55.9560814 73.2144241 20.0
58.0953865 74.4090424 20.0
60.2370834 75.6017304 20.0
62.3814201 76.7921677 20.0
64.5282898 77.9811936 20.0
66.6779175 79.1689529 20.0
68.829628 80.3563538 20.0
-16.5832234 29.7730103 20.0
-14.4333401 30.9666862 20.0
-12.2847242 32.1604462 20.0
-10.137907 33.3549919 20.0
-7.992911 34.5505829 20.0
-5.8499522 35.7477341 20.0
-3.7088657 36.9464378 20.0
-1.5697221 38.1469994 20.0
0.5677228 39.349083 20.0
2.7034767 40.5529061 20.0
4.8377338 41.7581902 20.0
6.9706392 42.9646988 20.0
9.1022787 44.1723862 20.0
11.2328844 45.3810387 20.0
13.3625641 46.590519 20.0
15.4914332 47.8007355 20.0
17.6196175 49.0114975 20.0
19.7472496 50.2225838 20.0
21.8743992 51.4339676 20.0
24.001152 52.6454392 20.0
26.1276569 53.8569528 20.0
28.2539692 55.0683785 20.0
30.3802605 56.2796173 20.0
32.5065842 57.4905472 20.0
34.6330185 58.7010041 20.0
36.7597466 59.9109384 20.0
38.8868484 61.1202164 20.0
41.0145187 62.32864 20.0
43.1428223 63.536232 20.0
45.2720146 64.7427063 20.0
47.4021225 65.947876 20.0
49.5334702 67.1516266 20.0
51.666153 68.3538132 20.0
53.8005257 69.5542755 20.0
55.9367486 70.7529679 20.0
58.0750275 71.9496002 20.0
60.2155533 73.1443558 20.0
62.3584366 74.3370438 20.0
64.5038758 75.5280228 20.0
66.6516571 76.7177658 20.0
68.8019104 77.9066544 20.0
70.9540254 79.0957031 20.0
-14.4538918 28.5184918 20.0
-12.3042469 29.7111626 20.0
-10.1562262 30.9040966 20.0
-8.0102253 32.0980454 20.0
-5.8662162 33.2933617 20.0
-3.7243135 34.4903183 20.0
-1.5844029 35.6890068 20.0
0.5535522 36.8895798 20.0
2.6897784 38.0917015 20.0
4.8243313 39.2953835 20.0
6.9573946 40.5004845 20.0
9.0891943 41.7068482 20.0
11.2198372 42.9143334 20.0
13.3495054 44.1228104 20.0
15.4783077 45.3320809 20.0
17.6064129 46.5419922 20.0
19.733881 47.7524147 20.0
21.8608514 48.96315 20.0
23.9874478 50.1741867 20.0
26.1137867 51.3853569 20.0
28.2399712 52.5965653 20.0
30.3660851 53.8076973 20.0
32.4922447 55.0186501 20.0
34.6185494 56.2292862 20.0
36.7451325 57.4395409 20.0
38.8721238 58.6492806 20.0
40.9996034 59.8583604 20.0
43.1277618 61.0665665 20.0
45.2566567 62.2740097 20.0
47.3865509 63.480217 20.0
49.5174942 64.685318 20.0
51.6498566 65.8889314 20.0
53.7836876 67.0911102 20.0
55.9192506 68.2914658 20.0