POSCAR file written by OVITO
1
14.9610004 0.0 0.0
7.48 12.9560004 0.0
0.0 0.0 40.0
C Si 
74 74 
Cartesian
7.2734528 10.5054665 20.0
9.4992905 11.5516587 20.0
11.7254334 12.6010142 20.0
4.8501202 7.0039616 20.0
7.071218 8.054203 20.0
9.2951832 9.1022396 20.0
11.5210934 10.1509457 20.0
13.7464667 11.2032423 20.0
15.970997 12.2579908 20.0
2.4302581 3.498776 20.0
4.6513314 4.5501948 20.0
6.8723136 5.6025377 20.0
9.0953131 6.6530319 20.0
11.3200665 7.7023015 20.0
13.544817 8.7529297 20.0
15.7683125 9.8058844 20.0
17.9911766 10.8595248 20.0
20.214941 11.9101258 20.0
8.688076e-06 1.5048189e-05 20.0
2.2258649 1.0462171 20.0
4.449946 2.0967751 20.0
6.6727367 3.1503236 20.0
8.8960314 4.2035284 20.0
11.1207705 5.2540107 20.0
13.345705 6.3031058 20.0
15.5687208 7.3537316 20.0
17.7896233 8.4061079 20.0
20.0108719 9.4575825 20.0
6.4699788 0.698335 20.0
8.694396 1.7530247 20.0
10.9198942 2.8052593 20.0
13.145649 3.8539904 20.0
15.369647 4.9019686 20.0
17.5908356 5.9523212 20.0
10.7155371 0.3553575 20.0
12.9416618 1.4046579 20.0
15.1676054 2.4508205 20.0
8.0839329 11.6709948 20.0
10.3103609 12.7177201 20.0
5.6566739 8.1719799 20.0
7.8792372 9.2205029 20.0
10.1046858 10.2677956 20.0
12.3307934 11.3179264 20.0
14.5558691 12.3718357 20.0
3.2375212 4.6668549 20.0
5.4577518 5.7187848 20.0
7.6792679 6.7699399 20.0
9.9031888 7.8190837 20.0
12.1284943 8.8684512 20.0
14.3532314 9.9205838 20.0
16.5766545 10.9747582 20.0
18.8005486 12.0276814 20.0
0.8113477 1.1654216 20.0
3.0357113 2.213583 20.0
5.2581592 3.2655127 20.0
7.480144 4.318861 20.0
9.7040282 5.3703823 20.0
11.9289436 6.4198714 20.0
14.1531801 7.4698382 20.0
16.3756638 8.5220194 20.0
18.5968132 9.5747624 20.0
20.8194428 10.6245642 20.0
5.0550709 0.8128291 20.0
7.2791147 1.8672274 20.0
9.5037489 2.9207622 20.0
11.7291765 3.9713832 20.0
13.954136 5.0198898 20.0
16.1766548 6.0693951 20.0
18.3970566 7.1208768 20.0
9.3002977 0.4703517 20.0
11.5259285 1.5223731 20.0
13.7521515 2.5701006 20.0
15.9767132 3.6171096 20.0
13.5456553 0.1199609 20.0
5.6654458 9.102294 23.3899994
7.6870289 10.5054217 23.3899994
9.7062445 11.9101124 23.3899994
3.8397656 5.2539764 23.3899994
5.8653374 6.653173 23.3899994
7.8894268 8.0541306 23.3899994
9.9104624 9.4575663 23.3899994
11.9301978 10.8595352 23.3899994
13.9503088 12.2579327 23.3899994
-8.688076e-06 -1.5048189e-05 23.3899994
2.0190401 1.4046115 23.3899994
4.0408335 2.8053692 23.3899994
6.0645862 4.2034068 23.3899994
8.0884228 5.6023631 23.3899994
10.110528 7.0039501 23.3899994
12.1315928 8.4061432 23.3899994
14.1527767 9.8059483 23.3899994
16.1748104 11.2032919 23.3899994
18.1958141 12.6009999 23.3899994
4.2451344 0.3552997 23.3899994
6.2661276 1.7530103 23.3899994
8.2880087 3.1503067 23.3899994
10.3093481 4.5502043 23.3899994
12.3303976 5.9522824 23.3899994
14.3526402 7.3538675 23.3899994
16.3762264 8.7528916 23.3899994
18.4002228 10.1510792 23.3899994
20.4219589 11.5516262 23.3899994
8.490593 0.698409 23.3899994
10.5106678 2.0968461 23.3899994
12.5303288 3.4986797 23.3899994
14.5515919 4.9019904 23.3899994
16.5755673 6.3032146 23.3899994
18.6011391 7.7022739 23.3899994
12.7346936 1.0461382 23.3899994
14.7536259 2.4508534 23.3899994
16.7755566 3.853855 23.3899994
6.2719298 10.3862057 23.3899994
8.2916098 11.7908182 23.3899994
4.4486814 6.5364442 23.3899994
6.4737797 7.9363532 23.3899994
8.4963894 9.3391981 23.3899994
10.5160055 10.74298 23.3899994
12.5353852 12.1434813 23.3899994
2.6244624 2.688438 23.3899994
4.6481962 4.0878377 23.3899994
6.6728544 5.4863181 23.3899994
8.696312 6.8869638 23.3899994
10.7178746 8.2894344 23.3899994
12.7384873 9.6907807 23.3899994
14.759327 11.0891132 23.3899994
16.7806034 12.486002 23.3899994
2.8300016 0.2385951 23.3899994
4.8504754 1.6382587 23.3899994
6.8727208 3.0357399 23.3899994
8.895215 4.4341431 23.3899994
10.916749 5.8354044 23.3899994
12.9380504 7.2375026 23.3899994
14.9606696 8.6375952 23.3899994
16.9840012 10.0354261 23.3899994
19.0062084 11.4339609 23.3899994
21.0259895 12.8363209 23.3899994
7.0755429 0.5844155 23.3899994
9.0965424 1.981503 23.3899994
11.1164856 3.3815453 23.3899994
13.1369419 4.7842307 23.3899994
15.1595583 6.1864181 23.3899994
17.1843758 7.5860014 23.3899994
19.2094765 8.9848566 23.3899994
11.3201485 0.9286532 23.3899994
13.3390722 2.3315005 23.3899994
15.3595467 3.735785 23.3899994
17.3835659 5.1372399 23.3899994
15.5642929 1.2852607 23.3899994
