POSCAR file written by OVITO
1
134.1956329 0.0 0.0
-67.0978165 116.2168274 0.0
0.0 0.0 40.0
C Si 
5954 5954 
Cartesian
-65.0012283 114.9302522 20.0
-62.8387184 116.1047516 20.0
-62.9026948 113.6460572 20.0
-60.7411347 114.8220902 20.0
-58.5794564 116.0036469 20.0
-62.9658508 111.1883926 20.0
-60.803608 112.3661804 20.0
-58.6409989 113.5449753 20.0
-56.4791031 114.7288971 20.0
-54.3204231 115.9195404 20.0
-60.8629762 109.9096604 20.0
-58.7007027 111.0894241 20.0
-56.5380364 112.2726364 20.0
-54.3775749 113.4601593 20.0
-52.2176705 114.6535645 20.0
-50.0602646 115.850792 20.0
-60.9175492 107.455101 20.0
-58.7558098 108.6351471 20.0
-56.594944 109.817833 20.0
-54.4334908 111.0053024 20.0
-52.2732506 112.1973724 20.0
-50.1141396 113.3927918 20.0
-47.9560548 114.5932694 20.0
-45.8008423 115.7975922 20.0
-58.8078995 106.1817474 20.0
-56.6465416 107.3649521 20.0
-54.4851074 108.55159 20.0
-52.3256912 109.7416306 20.0
-50.164856 110.9372026 20.0
-48.0074615 112.1366654 20.0
-45.8501054 113.3391495 20.0
-43.6944618 114.5462418 20.0
-41.5414315 115.7556229 20.0
-58.8536264 103.7303009 20.0
-56.6948281 104.9136658 20.0
-54.5354882 106.0993652 20.0
-52.3756867 107.2907333 20.0
-50.2148628 108.4832001 20.0
-48.0563698 109.6816101 20.0
-45.897545 110.8833772 20.0
-43.7420922 112.0881958 20.0
-41.5864563 113.297432 20.0
-39.4337197 114.5091706 20.0
-37.2812576 115.7224427 20.0
-56.7388535 102.4627228 20.0
-54.5803795 103.6498413 20.0
-52.4213639 104.8391114 20.0
-50.2610359 106.0316238 20.0
-48.1027145 107.2286682 20.0
-45.9449616 108.4290467 20.0
-43.7883721 109.633934 20.0
-41.6319199 110.8406678 20.0
-39.4778252 112.0512543 20.0
-37.3240509 113.2644119 20.0
-35.172329 114.4792862 20.0
-33.0214119 115.6967163 20.0
-56.7774353 100.0132904 20.0
-54.6207428 101.2001343 20.0
-52.463192 102.3891525 20.0
-50.3044472 103.5818177 20.0
-48.1457596 104.7769776 20.0
-45.9880792 105.9764938 20.0
-43.8308106 107.1796494 20.0
-41.6753273 108.3858414 20.0
-39.5203629 109.5951462 20.0
-37.3669396 110.8074112 20.0
-35.2137489 112.0216064 20.0
-33.0620117 113.2378845 20.0
-30.9116536 114.4560395 20.0
-28.7616463 115.6758805 20.0
-54.6568909 98.7505188 20.0
-52.5008621 99.9409332 20.0
-50.3434258 101.1317902 20.0
-48.1851311 102.3268204 20.0
-46.0289841 103.5261536 20.0
-43.8722344 104.7269745 20.0
-41.7154961 105.9324494 20.0
-39.5608711 107.1406174 20.0
-37.4072952 108.3513184 20.0
-35.2536774 109.5650177 20.0
-33.1021309 110.7803803 20.0
-30.9506302 111.9977952 20.0
-28.8001824 113.2170105 20.0
-26.6508084 114.4373093 20.0
-24.5017567 115.6589661 20.0
-54.689312 96.3022766 20.0
-52.5346642 97.4915543 20.0
-50.3779411 98.6834488 20.0
-48.2218781 99.8779374 20.0
-46.0658035 101.0753098 20.0
-43.910553 102.2772598 20.0
-41.7542992 103.4801255 20.0
-39.5998917 104.6875687 20.0
-37.4462128 105.8976822 20.0
-35.2929039 107.1091766 20.0
-33.1407089 108.32444 20.0
-30.9885006 109.5407334 20.0
-28.8383408 110.7588578 20.0
-26.6885281 111.9791108 20.0
-24.5388489 113.1999207 20.0
-22.3902035 114.4221039 20.0
-20.2419911 115.6452866 20.0
-52.5650826 95.0438156 20.0
-50.4103699 96.2356873 20.0
-48.255333 97.4296875 20.0
-46.0996895 98.6266556 20.0
-43.9444238 99.8264771 20.0
-41.7894554 101.0294418 20.0
-39.6356621 102.2353592 20.0
-37.4821854 103.4440689 20.0
-35.3286858 104.655365 20.0
-33.1770859 105.8687898 20.0
-31.0254841 107.0846024 20.0
-28.8751546 108.3023987 20.0
-26.7249031 109.521164 20.0
-24.5749245 110.7417832 20.0
-22.4263382 111.9635086 20.0
-20.2778797 113.1859589 20.0
-18.1299686 114.4096909 20.0
-15.982317 115.6337662 20.0
-52.5927315 92.596283 20.0
-50.4396057 93.7878647 20.0
-48.2854195 94.9823838 20.0
-46.1310158 96.1788406 20.0
-43.976841 97.3776398 20.0
-41.8226319 98.5799485 20.0
-39.6685105 99.7842636 20.0
-37.5157776 100.99189 20.0
-35.3637505 102.2026138 20.0
-33.2115669 103.4148255 20.0
-31.0602989 104.6293564 20.0
-28.9095346 105.8461914 20.0
-26.7600994 107.0646668 20.0
-24.6103802 108.2843018 20.0
-22.461401 109.5054093 20.0
-20.3126679 110.7276001 20.0
-18.1646652 111.9506532 20.0
-16.0170784 113.1745682 20.0
-13.8695308 114.3990402 20.0
-11.7225199 115.6240006 20.0
-50.4648476 91.3405762 20.0
-48.3125725 92.5348892 20.0
-46.1587753 93.7304764 20.0
-44.0046158 94.9289704 20.0
-41.8522454 96.1301422 20.0
-39.6985245 97.3339234 20.0
-37.5468941 98.5411759 20.0
-35.3948517 99.7496033 20.0
-33.242775 100.9613724 20.0
-31.0928135 102.1753998 20.0
-28.9426346 103.3908157 20.0
-26.7923985 104.6085587 20.0
-24.6438408 105.8276139 20.0
-22.4951115 107.0480423 20.0
-20.3464184 108.2697373 20.0
-18.1987095 109.4922867 20.0
-16.0509052 110.7157669 20.0
-13.903699 111.9399796 20.0
-11.7565642 113.1646957 20.0
-9.6095829 114.3899231 20.0
-7.4628186 115.6154404 20.0
-50.4889107 88.8933334 20.0
-48.336853 90.0874939 20.0
-46.1844368 91.2835083 20.0
-44.0319633 92.4813233 20.0
-41.8796464 93.6823502 20.0
-39.7268181 94.884613 20.0
-37.5751877 96.090271 20.0
-35.4243164 97.2990418 20.0
-33.2729874 98.5087662 20.0
-31.1229229 99.7219467 20.0
-28.9724694 100.936554 20.0
-26.8241749 102.1530838 20.0
-24.6746159 103.3715592 20.0
-22.5270958 104.5914917 20.0
-20.3791409 105.8122864 20.0
-18.2308102 107.034462 20.0
-16.0838203 108.257431 20.0
-13.9368448 109.4812546 20.0
-11.789486 110.705719 20.0
-9.643013 111.9306108 20.0
-7.4962597 113.156044 20.0
-5.3496294 114.3817215 20.0
-3.2030833 115.6075745 20.0
-48.3595009 87.6407776 20.0
-46.2077904 88.83638 20.0
-44.0560455 90.0340805 20.0
-41.904049 91.2338181 20.0
-39.7524834 92.4359284 20.0
-37.6014557 93.6407013 20.0
-35.4508705 94.8480606 20.0
-33.3000069 96.057251 20.0
-31.150713 97.2689819 20.0
-29.0015888 98.4830246 20.0
-26.8533708 99.699112 20.0
-24.7048302 100.9161682 20.0
-22.5567494 102.1352768 20.0
-20.4097271 103.3557739 20.0
-18.262558 104.5770951 20.0
-16.115509 105.7997284 20.0
-13.9687234 107.0230103 20.0
-11.8220825 108.2469788 20.0
-9.6756649 109.4717713 20.0
-7.5290828 110.6968079 20.0
-5.3824902 111.9222946 20.0
-3.2360428 113.1480866 20.0
-1.0898588 114.3740311 20.0
1.0565894 115.6000519 20.0
-48.3798142 85.1934662 20.0
-46.2291184 86.3894882 20.0
-44.078373 87.5875092 20.0
-41.9270974 88.7861176 20.0
-39.775692 89.9875946 20.0
-37.6249123 91.1913986 20.0
-35.4750672 92.3975067 20.0
-33.3249779 93.6061096 20.0
-31.1760826 94.8169937 20.0
-29.027689 96.029808 20.0
-26.87924 97.2448273 20.0
-24.7320957 98.461586 20.0
-22.5848885 99.6796494 20.0
-20.4377251 100.8993912 20.0
-18.2911816 102.1202316 20.0
-16.1449642 103.3421173 20.0
-13.9988108 104.5650635 20.0
-11.8525744 105.7886429 20.0
-9.7066889 107.0129471 20.0
-7.5606036 108.2378082 20.0
-5.4147 109.4630432 20.0
-3.2687433 110.6886673 20.0
-1.122528 111.9144822 20.0
1.0234522 113.1404572 20.0
3.1698229 114.366478 20.0
5.3162193 115.5923844 20.0
-46.2484856 83.9426804 20.0
-44.0985069 85.1399536 20.0
-41.9474984 86.3389206 20.0
-39.797287 87.5396881 20.0
-37.6474076 88.7429276 20.0
-35.4969483 89.9479066 20.0
-33.3482895 91.155426 20.0
-31.1992607 92.3653336 20.0
-29.0511131 93.5773773 20.0
-26.9043026 94.7912827 20.0
-24.7566052 96.0071716 20.0
-22.6106205 97.2248154 20.0
-20.4643593 98.4434586 20.0
-18.3188114 99.6640549 20.0
-16.1726704 100.8851166 20.0
-14.0272713 102.1074219 20.0
-11.881404 103.3306198 20.0
-9.7365856 104.5545273 20.0
-7.5911751 105.779007 20.0
-5.4455109 107.0039902 20.0
-3.3003786 108.2293396 20.0
-1.1548078 109.4550171 20.0
0.9910598 110.6808548 20.0
3.1368578 111.9067612 20.0
5.2830072 113.132721 20.0
7.4292641 114.3585663 20.0
9.5756741 115.5842591 20.0
-46.2664986 81.4956208 20.0
-44.117157 82.6936035 20.0
-41.9673576 83.8922502 20.0
-39.8173943 85.0926132 20.0
-37.6677819 86.2948685 20.0
-35.5185128 87.4992066 20.0
-33.3692589 88.7057114 20.0
-31.2213268 89.9144898 20.0
-29.0738525 91.1256867 20.0
-26.92721 92.3390961 20.0
-24.7803631 93.5533905 20.0
-22.6339016 94.7700806 20.0
-20.4881401 95.9881822 20.0
-18.3435154 97.207634 20.0
-16.1985531 98.4286194 20.0
-14.0536232 99.6502533 20.0
-11.9087382 100.8727418 20.0
-9.7645302 102.0964203 20.0
-7.6196614 103.3203735 20.0
-5.4747572 104.5449448 20.0
-3.3303983 105.7701569 20.0
-1.1854396 106.9955292 20.0
0.9598616 108.2211456 20.0
3.1048653 109.4470291 20.0
5.2502236 110.6729126 20.0
7.3960095 111.8987428 20.0
9.5421791 113.1244965 20.0
11.6883879 114.3499909 20.0
13.8352013 115.575119 20.0
-44.1340256 80.2465057 20.0
-41.9849664 81.4451523 20.0
-39.8355141 82.6451493 20.0
-37.6864548 83.8470154 20.0
-35.5374947 85.0504608 20.0
-33.3890038 86.2562485 20.0
-31.2413979 87.4643326 20.0
-29.0943031 88.6742707 20.0
-26.947876 89.8866348 20.0
-24.8017998 91.1005859 20.0
-22.6561489 92.3159332 20.0
-20.510973 93.5334091 20.0
-18.3667526 94.7523499 20.0
-16.2221832 95.9720688 20.0
-14.0779266 97.1933212 20.0
-11.9336434 98.4152832 20.0
-9.7901421 99.638237 20.0
-7.6463948 100.8620072 20.0
-5.5022106 102.0861206 20.0
-3.3585882 103.3109436 20.0
-1.2140582 104.536026 20.0
0.9298158 105.7614823 20.0
3.0743473 106.9871522 20.0
5.2192006 108.2128677 20.0
7.3637362 109.4387436 20.0
9.5093842 110.6643677 20.0
11.6548624 111.889946 20.0
13.8008795 113.1153565 20.0
15.9475336 114.3401184 20.0
18.0945168 115.564621 20.0
-44.1501579 77.799614 20.0
-42.0016212 78.998787 20.0
-39.8525276 80.1980057 20.0
-37.703907 81.3994522 20.0
-35.5549698 82.6021805 20.0
-33.4073753 83.80719 20.0
-31.2599907 85.014534 20.0
-29.1131001 86.2236481 20.0
-26.9669076 87.4344559 20.0
-24.8214627 88.6478958 20.0
-22.6761246 89.8624802 20.0
-20.5316868 91.0787354 20.0
-18.3878479 92.2971192 20.0
-16.2436886 93.5161362 20.0
-14.1003466 94.7364884 20.0
-11.9572144 95.9582062 20.0
-9.8138781 97.1804581 20.0
-7.6709633 98.4035874 20.0
-5.527947 99.6275406 20.0
-3.3851619 100.8518678 20.0
-1.2420564 102.0767136 20.0
0.9014818 103.3018799 20.0
3.0450737 104.5271988 20.0
5.1888619 105.752861 20.0
7.3327794 106.9784928 20.0
9.4772597 108.2040939 20.0
11.6222735 109.4296952 20.0
13.7675934 110.6548996 20.0
15.9130468 111.880066 20.0
18.0595837 113.1045914 20.0
20.2063561 114.328598 20.0
22.3537998 115.552269 20.0
-42.0169373 76.5516052 20.0
-39.8683168 77.7511978 20.0
-37.7201729 78.95224 20.0
-35.571888 80.1543198 20.0
-33.4244766 81.3591461 20.0
-31.2769928 82.5647507 20.0
-29.1304302 83.7730179 20.0
-26.983965 84.9829026 20.0
-24.839243 86.1950684 20.0
-22.6941109 87.4089508 20.0
-20.5499974 88.6246109 20.0
-18.4069882 89.8417512 20.0
-16.2639942 91.0606842 20.0
-14.1206331 92.2801666 20.0
-11.978487 93.5010224 20.0
-9.8363905 94.7231064 20.0
-7.6937752 95.9455644 20.0
-5.5517626 97.1688843 20.0
-3.4091189 98.3928223 20.0
-1.2674322 99.6173325 20.0
0.874989 100.8421326 20.0
3.0177288 102.0673294 20.0
5.1602969 103.2926102 20.0
7.3033733 104.5180893 20.0
9.4470787 105.7436447 20.0
11.5907049 106.968979 20.0
13.7352085 108.1943131 20.0
15.8798122 109.4193649 20.0
18.0249176 110.6440735 20.0
20.1711598 111.8683778 20.0
22.3175945 113.0918808 20.0
24.4647274 114.3149185 20.0
26.6129895 115.5369339 20.0
-42.0314522 74.1050034 20.0
-39.8834496 75.3045731 20.0
-37.735302 76.5049591 20.0
-35.5873451 77.7067871 20.0
-33.4398346 78.9102554 20.0
-31.2930222 80.11586 20.0
-29.1466427 81.3229294 20.0
-27.0009632 82.532219 20.0
-24.8561822 83.7436524 20.0
-22.7115193 84.956131 20.0
-20.567854 86.1710815 20.0
-18.424345 87.3872376 20.0
-16.2821159 88.60495 20.0
-14.1394777 89.8240662 20.0
-11.9980336 91.0444336 20.0
-9.8563442 92.2654877 20.0
-7.7142434 93.4875107 20.0
-5.5734368 94.7104721 20.0
-3.4319041 95.9338608 20.0
-1.2901242 97.1578522 20.0
0.8506772 98.3824387 20.0
2.9925364 99.6071625 20.0
5.1345186 100.8322144 20.0
7.2759647 102.0575714 20.0
9.4182978 103.2827912 20.0
11.5611191 104.5081177 20.0
13.7040434 105.7333222 20.0
15.8477144 106.9582596 20.0
17.992098 108.183075 20.0
20.1365299 109.4073334 20.0
22.2821293 110.6310654 20.0
24.4283829 111.8543244 20.0
26.5750599 113.0765915 20.0
28.7231407 114.2979584 20.0
30.8719522 115.5180817 20.0
-39.8974762 72.8576126 20.0
-37.7497559 74.0581131 20.0
-35.6019058 75.2594147 20.0
-33.4546929 76.4622498 20.0
-31.3077583 77.6667557 20.0
-29.1617203 78.8733826 20.0
-27.0161209 80.0814133 20.0
-24.871214 81.2916718 20.0
-22.727211 82.5038452 20.0
-20.5839501 83.717537 20.0
-18.4412842 84.9332962 20.0
-16.2990341 86.1502075 20.0
-14.1571713 87.3681793 20.0
-12.0156326 88.5878372 20.0
-9.8744516 89.8082657 20.0
-7.7339039 91.0297318 20.0
-5.5930701 92.252121 20.0
-3.4525161 93.4749985 20.0
-1.3122729 94.6986389 20.0
0.8285798 95.9226532 20.0
2.9689992 97.147049 20.0
5.1095624 98.371933 20.0
7.250957 99.5967026 20.0
9.3916226 100.8218231 20.0
11.5335245 102.0469055 20.0
13.6756535 103.2718353 20.0
15.8174296 104.4969025 20.0
17.9608364 105.7213822 20.0
20.1042366 106.9456864 20.0
22.2478542 108.1697693 20.0
24.392786 109.3927689 20.0
26.5385056 110.6154404 20.0
28.684784 111.8371735 20.0
30.8324204 113.0575485 20.0
32.9810066 114.2772064 20.0
35.1303368 115.494812 20.0
-39.9106828 70.4108276 20.0
-37.7633934 71.6112671 20.0
-35.6158448 72.8121186 20.0
-33.4690209 74.0150375 20.0
-31.3218994 75.218216 20.0
-29.1760025 76.4240494 20.0
-27.0307426 77.6317063 20.0
-24.8858872 78.8405152 20.0
-22.7421055 80.0519333 20.0
-20.5984841 81.2645188 20.0
-18.4562321 82.4790039 20.0
-16.3140488 83.695137 20.0
-14.172945 84.9128036 20.0
-12.0321207 86.1313248 20.0
-9.891839 87.3515244 20.0
-7.7514763 88.5722428 20.0
-5.6115909 89.7938156 20.0
-3.4714918 91.0163193 20.0
-1.3322857 92.2394333 20.0
0.8074246 93.4629593 20.0
2.9473778 94.6870804 20.0
5.0868306 95.911293 20.0
7.2266646 97.1359558 20.0
9.3670225 98.3607102 20.0
11.5074024 99.5853806 20.0
13.6482306 100.8103256 20.0
15.7895346 102.0348892 20.0
17.9306394 103.2594147 20.0
20.0729847 104.4837647 20.0
22.2158318 105.7073441 20.0
24.3587055 106.9308472 20.0
26.5033036 108.1533814 20.0
28.6479492 109.3751145 20.0
30.793808 110.5964051 20.0
32.9408914 111.8156128 20.0
35.0887909 113.0341263 20.0
37.2382736 114.2509689 20.0
39.3892594 115.4649964 20.0
-37.7764092 69.1643753 20.0
-35.6290932 70.3651962 20.0
-33.4821091 71.5670243 20.0
-31.335331 72.7701798 20.0
-29.189497 73.9750748 20.0
-27.0440388 75.1814652 20.0
-24.8991738 76.3896713 20.0
-22.7556477 77.5999069 20.0
-20.6123638 78.8117676 20.0
-18.47052 80.0258484 20.0
-16.3285904 81.2405853 20.0
-14.1877432 82.457573 20.0
-12.0467253 83.6752091 20.0
-9.907094 84.8943864 20.0
-7.7676845 86.1148453 20.0
-5.6281376 87.3357926 20.0
-3.4889627 88.5574951 20.0
-1.3503747 89.7802658 20.0
0.7887541 91.0032883 20.0
2.9276404 92.2266846 20.0
5.0662322 93.4507675 20.0
7.205236 94.6749115 20.0
9.3444491 95.8992004 20.0
11.4835863 97.1238632 20.0
13.6228352 98.348259 20.0
15.7626562 99.5727234 20.0
17.903307 100.7971344 20.0
20.043581 102.0209885 20.0
22.184967 103.2447586 20.0
24.3270855 104.4679489 20.0
26.4691563 105.6905518 20.0
28.6129437 106.9126434 20.0
30.7570133 108.1334152 20.0
32.9019166 109.3535004 20.0
35.0486374 110.5722122 20.0
37.195816 111.7890167 20.0
39.3447647 113.0046692 20.0
41.4951897 114.217598 20.0
43.6470452 115.4281693 20.0
-37.7889595 66.7175522 20.0
-35.641922 67.9183578 20.0
-33.4949265 69.1197586 20.0
-31.3483238 70.322319 20.0
-29.2023068 71.5264359 20.0
-27.0570564 72.7321167 20.0
-24.9125652 73.939682 20.0
-22.7686653 75.1488266 20.0
-20.6254978 76.3594208 20.0
-18.4833069 77.5722733 20.0
-16.3417187 78.786499 20.0
-14.2011786 80.0022202 20.0
-12.0608606 81.2195206 20.0
-9.9210854 82.4377594 20.0
-7.7821946 83.6572266 20.0
-5.6431012 84.8776704 20.0
-3.5045867 86.0988464 20.0
-1.3666351 87.3209381 20.0
0.7713024 88.5435562 20.0
2.909719 89.7664414 20.0
5.0473523 90.9900208 20.0
7.1858654 92.2136383 20.0
9.3235397 93.4377594 20.0
11.4614878 94.6618653 20.0
13.6003914 95.8859558 20.0
15.7384386 97.1103134 20.0
17.8773766 98.3341293 20.0
20.0171833 99.5579682 20.0
22.1563759 100.7815018 20.0
24.2967224 102.004425 20.0
26.4380493 103.2271881 20.0
28.5791569 104.4488907 20.0
30.7217407 105.6698532 20.0
32.8652 106.8901216 20.0
35.0092011 108.1087647 20.0
37.1552315 109.3263245 20.0
39.3017464 110.5420304 20.0
41.4498482 111.7557221 20.0
43.6002388 112.967476 20.0
45.7513657 114.1755295 20.0
47.9051744 115.3809052 20.0
-35.6542473 65.4714203 20.0
-33.5074997 66.6728668 20.0
-31.3607941 67.8747026 20.0
-29.2147923 69.0781326 20.0
-27.069437 70.2831345 20.0
-24.9245854 71.4892578 20.0
-22.780674 72.6974564 20.0
-20.6378556 73.9077226 20.0
-18.4957562 75.1192551 20.0
-16.3546257 76.332962 20.0
-14.2137461 77.5476761 20.0
-12.0738468 78.7636948 20.0
-9.9343672 79.9814148 20.0
-7.7955699 81.2000961 20.0
-5.6573825 82.4197006 20.0
-3.5192817 83.640503 20.0
-1.3819412 84.8618164 20.0
0.7555481 86.083725 20.0
2.893138 87.3062897 20.0
5.029942 88.5291748 20.0
7.1670132 89.7525788 20.0
9.3041802 90.9760896 20.0
11.4413224 92.199707 20.0
13.5788069 93.4236832 20.0
15.7159395 94.6472931 20.0
17.853775 95.870987 20.0
19.9921914 97.0944977 20.0
22.1301327 98.3175964 20.0
24.2689152 99.5406723 20.0
26.4088726 100.7627564 20.0
28.5483036 101.9844666 20.0
30.688839 103.2057495 20.0
32.8308182 104.4253922 20.0
34.9727364 105.6444931 20.0
37.11586 106.8620988 20.0
39.2605477 108.0776978 20.0
41.4066467 109.2926102 20.0
43.5537529 110.5039749 20.0
45.7032662 111.7133942 20.0
47.8540574 112.9200668 20.0
50.007061 114.1223297 20.0
52.1629105 115.3210526 20.0
-35.6662674 63.0246468 20.0
-33.5194702 64.2255707 20.0
-31.3727741 65.427208 20.0
-29.2267952 66.6300736 20.0
-27.0812435 67.8340454 20.0
-24.936781 69.0400848 20.0
-22.792387 70.2467194 20.0
-20.6492958 71.455719 20.0
-18.5070801 72.6664887 20.0
-16.3660565 73.8789978 20.0
-14.2257319 75.0932159 20.0
-12.0858612 76.3085785 20.0
-9.9467306 77.5250244 20.0
-7.808486 78.7432862 20.0
-5.6701336 79.9620896 20.0
-3.5328062 81.1818314 20.0
-1.395367 82.4025574 20.0
0.7413376 83.6240158 20.0
2.8778806 84.8458024 20.0
5.0144596 86.0683746 20.0
7.1503611 87.2911453 20.0
9.2866192 88.5141678 20.0
11.4231768 89.7376023 20.0
13.5593272 90.9606934 20.0
15.6958027 92.1841431 20.0
17.8322373 93.4075089 20.0
19.9689274 94.6304703 20.0
22.1062012 95.853569 20.0
24.2432461 97.0759048 20.0
26.3809967 98.2979813 20.0
28.51968 99.5196762 20.0
30.6587105 100.7401276 20.0
32.7977562 101.9602662 20.0
34.9386788 103.1790161 20.0
37.0794106 104.3963852 20.0
39.2217178 105.6131363 20.0
41.3657684 106.8270035 20.0
43.5101128 108.039299 20.0
45.6567917 109.2496491 20.0
47.8049889 110.4554367 20.0
49.9550324 111.6603623 20.0
52.1077271 112.859314 20.0
54.2624512 114.0548477 20.0
56.4198456 115.2462082 20.0
-33.5313111 61.7786865 20.0
-31.3847275 62.9800262 20.0
-29.2384777 64.1822205 20.0
-27.0929718 65.3856506 20.0
-24.9480286 66.5903702 20.0
-22.8037663 67.7965393 20.0
-20.6606255 69.0044632 20.0
-18.5184593 70.2143936 20.0
-16.3769493 71.4256211 20.0
-14.2366839 72.6386643 20.0
-12.097085 73.8533554 20.0
-9.9578382 75.068924 20.0
-7.8198385 76.2860718 20.0
-5.6819029 77.5041962 20.0
-3.5451401 78.7235871 20.0
-1.4083625 79.9434892 20.0
0.7283066 81.1640778 20.0
2.8642038 82.3855286 20.0
4.9998498 83.6073075 20.0
7.1356616 84.8295212 20.0
9.2708464 86.0523071 20.0
11.4062939 87.2748261 20.0
13.541811 88.4977722 20.0
15.6768999 89.7207489 20.0
17.8125477 90.9434662 20.0
19.9480724 92.1664124 20.0
22.0835762 93.3887253 20.0
24.2195873 94.6108704 20.0
26.3564129 95.8328324 20.0
28.4926777 97.0537109 20.0
30.6301155 98.2743073 20.0
32.7681809 99.4939881 20.0
34.90617 100.7125473 20.0
37.0458794 101.930397 20.0
39.1854439 103.1459656 20.0
41.3264885 104.360611 20.0
43.4693871 105.5732422 20.0
45.6129265 106.783226 20.0
47.7582894 107.991089 20.0
49.9057008 109.1946335 20.0
52.054657 110.3955231 20.0
54.206913 111.5927811 20.0
56.3612557 112.7826462 20.0
58.5174904 113.970871 20.0
60.6775551 115.1520386 20.0
-33.5430603 59.3318405 20.0
-31.396431 60.5329666 20.0
-29.2500839 61.7346001 20.0
-27.1042748 62.937336 20.0
-24.959345 64.1413727 20.0
-22.815094 65.3467941 20.0
-20.6716061 66.5537949 20.0
-18.529316 67.7623902 20.0
-16.3880158 68.9730302 20.0
-14.2472038 70.1847763 20.0
-12.1077013 71.3981857 20.0
-9.9688606 72.6133652 20.0
-7.8306089 73.829361 20.0
-5.6933465 75.0466537 20.0
-3.55636 76.2652359 20.0
-1.4203468 77.4845352 20.0
0.715645 78.7044831 20.0
2.851176 79.9252472 20.0
4.986619 81.1462555 20.0
7.1214047 82.3681336 20.0
9.2559395 83.5900574 20.0
11.3908835 84.8121567 20.0
13.5252018 86.0346527 20.0
15.6594315 87.2569962 20.0
17.7942906 88.4794541 20.0
19.9289684 89.7015915 20.0
22.0637569 90.923607 20.0
24.1980419 92.1456299 20.0
26.3330555 93.3666306 20.0
28.4688759 94.5875626 20.0
30.603981 95.8077545 20.0
32.7400856 97.0268326 20.0
34.8772164 98.2457047 20.0
37.0139771 99.462677 20.0
39.1526566 100.6786347 20.0
41.2913017 101.8933182 20.0
43.4309998 103.1055222 20.0
45.572361 104.3159256 20.0
47.7145195 105.5235291 20.0
49.8587418 106.7282334 20.0
52.0056343 107.930397 20.0
54.1533585 109.1270523 20.0
56.304512 110.3196182 20.0
58.4587708 111.5084381 20.0
60.6145211 112.6912232 20.0
62.7742768 113.8694154 20.0
64.9354324 115.0440216 20.0
-31.4080639 58.0859566 20.0
-29.2615814 59.2872658 20.0
-27.1155834 60.4892464 20.0
-24.9702264 61.6924019 20.0
-22.8257771 62.8969842 20.0
-20.6821671 64.10289 20.0
-18.5398407 65.310997 20.0
-16.3980408 66.519989 20.0
-14.2573834 67.7309265 20.0
-12.1177216 68.943634 20.0
-9.9790584 70.1574555 20.0
-7.8413048 71.3731308 20.0
-5.7037564 72.5895005 20.0
-3.5672167 73.806778 20.0
-1.4310231 75.0254364 20.0
0.704468 76.2447128 20.0
2.8394192 77.464592 20.0
4.9742142 78.6854477 20.0
7.1083155 79.9063264 20.0
9.2424526 81.1277084 20.0
11.376668 82.3494187 20.0
13.5100889 83.5710907 20.0
15.6437674 84.7931595 20.0
17.7773304 86.0149307 20.0
19.9110126 87.2365799 20.0
22.0446796 88.4584656 20.0
24.1785774 89.6793976 20.0
26.3119354 90.9003906 20.0
28.4461079 92.1207962 20.0
30.5807495 93.3403854 20.0
32.7147751 94.5597306 20.0
34.8498726 95.7773972 20.0
36.9853784 96.9944078 20.0
39.1215172 98.2106323 20.0
41.2581596 99.4240799 20.0
43.3963471 100.6371994 20.0
45.534565 101.8474198 20.0
47.6753235 103.0554123 20.0
49.816063 104.2611313 20.0
51.959446 105.4627228 20.0
54.1049843 106.6609192 20.0
56.25177 107.8552552 20.0
58.4026184 109.0443497 20.0
60.5558129 110.2289124 20.0
62.7114105 111.4089737 20.0
64.871193 112.5845795 20.0
67.0320511 113.7577591 20.0
-31.4197331 55.6390648 20.0
-29.2732411 56.8401986 20.0
-27.126936 58.0415726 20.0
-24.9813652 59.2440567 20.0
-22.8365441 60.4475899 20.0
-20.6926708 61.6526146 20.0
-18.5499859 62.8594818 20.0
-16.4079533 64.0674973 20.0
-14.2672167 65.2774582 20.0
-12.1274204 66.4889221 20.0
-9.9889642 67.7023316 20.0
-7.850742 68.9163818 20.0
-5.7134791 70.1318817 20.0
-3.5772729 71.348877 20.0
-1.4414342 72.56633 20.0
0.6935019 73.7851486 20.0
2.8285752 75.0043488 20.0
4.962707 76.2239838 20.0
7.0967402 77.4444275 20.0
9.2300663 78.6653443 20.0
11.3632374 79.8862076 20.0
13.4965935 81.1075745 20.0
15.6293173 82.3287888 20.0
17.7620945 83.5500641 20.0
19.8948728 84.7716217 20.0
22.0271511 85.9923172 20.0
24.1597729 87.2132111 20.0
26.292656 88.4336319 20.0
28.425272 89.6533356 20.0
30.5585003 90.8729478 20.0
32.6919136 92.0912933 20.0
34.8249359 93.3089829 20.0
36.959198 94.5259018 20.0
39.0937042 95.7410279 20.0
41.2281952 96.9552612 20.0
43.3640328 98.167305 20.0
45.5003548 99.3775025 20.0
47.6378975 100.5863877 20.0
49.7768059 101.790802 20.0
51.9173928 102.9941788 20.0
54.0595665 104.1934586 20.0
56.2036858 105.3868103 20.0
58.3504257 106.579361 20.0
60.5005265 107.7646485 20.0
62.6536179 108.9457932 20.0
64.8088227 110.1244125 20.0
66.9688188 111.2986145 20.0
69.1303024 112.4720383 20.0
-29.2848301 54.3930512 20.0
-27.1384392 55.5942536 20.0
-24.9925576 56.7958832 20.0
-22.8474674 57.9986878 20.0
-20.7034302 59.2030602 20.0
-18.5602799 60.4085312 20.0
-16.4181709 61.6158333 20.0
-14.2773352 62.8248253 20.0
-12.1370859 64.0347672 20.0
-9.9981794 65.2469788 20.0
-7.8605318 66.4605332 20.0
-5.7230554 67.674736 20.0
-3.5868426 68.8908006 20.0
-1.4510058 70.1073456 20.0
0.6838233 71.3252335 20.0
2.8180108 72.5438309 20.0
4.9522358 73.7627411 20.0
7.0854597 74.9825822 20.0
9.2182608 76.2026901 20.0
11.3511934 77.4230957 20.0
13.4836979 78.6435623 20.0
15.6160374 79.8642426 20.0
17.7478752 81.0853272 20.0
19.8795204 82.305687 20.0
22.0116405 83.5262451 20.0
24.1430759 84.7465592 20.0
26.274931 85.9662324 20.0
28.4065971 87.1859055 20.0
30.5381203 88.4045029 20.0
32.670002 89.6225128 20.0
34.8025322 90.8401718 20.0
36.9346162 92.0560989 20.0
39.0676041 93.2712784 20.0
41.2007675 94.4849243 20.0
43.3345032 95.697052 20.0
45.4694939 96.9077682 20.0
47.6049919 98.1157227 20.0
49.7412834 99.3214874 20.0
51.8795624 100.5245819 20.0
54.0188408 101.724144 20.0
56.1601029 102.9203186 20.0
58.3046341 104.1124802 20.0
60.4502526 105.3000488 20.0
62.6000443 106.4837113 20.0
64.7541657 107.6636124 20.0
66.9090348 108.8398744 20.0
69.0692902 110.0142593 20.0
-29.2967014 51.9462014 20.0
-27.1500549 53.1468506 20.0
-25.0040264 54.3482323 20.0
-22.8585454 55.5502281 20.0
-20.714037 56.7533303 20.0
-18.5705261 57.9580728 20.0
-16.4279843 59.1638908 20.0
-14.2866984 60.3716087 20.0
-12.1465168 61.5811653 20.0
-10.0075274 62.7918129 20.0
-7.8695622 64.0044327 20.0
-5.7321644 65.2178574 20.0
-3.5959983 66.4325409 20.0
-1.4604664 67.6488037 20.0
0.6743701 68.8654176 20.0
2.8083873 70.0830689 20.0
4.942083 71.3016586 20.0
7.0748334 72.5205002 20.0
9.2075214 73.7399216 20.0
11.339736 74.9596634 20.0
13.4717579 76.1794205 20.0
15.6033135 77.3998413 20.0
17.7347603 78.6196518 20.0
19.8656044 79.8398132 20.0
21.9967804 81.0598373 20.0
24.1277638 82.2793045 20.0
26.2583237 83.4988709 20.0
28.3889122 84.7175522 20.0
30.5200863 85.935875 20.0
32.6505013 87.1538315 20.0
34.7818375 88.3703385 20.0
36.912674 89.5862427 20.0
39.0439682 90.8011322 20.0
41.1762772 92.0144577 20.0
43.3082161 93.2266541 20.0
45.4409828 94.4367066 20.0
47.5745125 95.6444321 20.0
49.7090569 96.8508148 20.0
51.8447648 98.0538712 20.0
53.9824906 99.2546539 20.0
56.1208 100.4512863 20.0
58.262043 101.6445084 20.0
60.40588 102.8345185 20.0
62.5524483 104.0205688 20.0
64.7027588 105.2021027 20.0
66.856186 106.3805084 20.0
69.0122223 107.5574265 20.0
71.1719132 108.7324295 20.0
-27.1619968 50.6998062 20.0
-25.0154285 51.9004136 20.0
-22.86965 53.1016579 20.0
-20.7247544 54.3041039 20.0
-18.5808811 55.5076294 20.0
-16.4383164 56.7129593 20.0
-14.2963152 57.9192314 20.0
-12.1560917 59.1275024 20.0
-10.016511 60.3370705 20.0
-7.878386 61.5483322 20.0
-5.741374 62.7611313 20.0
-3.6047616 63.9748918 20.0
-1.4694512 65.1896286 20.0
0.6652651 66.4056931 20.0
2.7992072 67.6227112 20.0
4.9323568 68.8399888 20.0
7.0652175 70.0583496 20.0
9.1971874 71.2770462 20.0
11.3289566 72.4958802 20.0
13.4605618 73.7154541 20.0
15.5912962 74.9346162 20.0
17.7220249 76.1541596 20.0
19.8527738 77.3737106 20.0
21.9828664 78.5927811 20.0
24.1130142 79.8121186 20.0
26.2427731 81.0307236 20.0
28.3726063 82.2489853 20.0
30.502697 83.4671555 20.0
32.6321526 84.6837998 20.0
34.762146 85.9004364 20.0
36.8922998 87.1158753 20.0
39.0228233 88.3302612 20.0
41.1528511 89.5437165 20.0
43.2838287 90.7549286 20.0
45.4156723 91.9655228 20.0
47.5471726 93.1738663 20.0
49.6809197 94.3801193 20.0
51.8140869 95.583519 20.0
53.9495736 96.7850724 20.0
56.0862656 97.981865 20.0
58.2246781 99.1776657 20.0
60.3663178 100.368515 20.0
62.510891 101.5566788 20.0
64.6566773 102.7404709 20.0
66.8079224 103.9211198 20.0
68.961937 105.0997696 20.0
71.1182785 106.2776795 20.0
-27.174284 48.2528572 20.0
-25.0274506 49.4530335 20.0
-22.8811742 50.6536904 20.0
-20.7358456 51.8551254 20.0
-18.5915718 53.057766 20.0
-16.4481545 54.2616654 20.0
-14.3061295 55.4668999 20.0
-12.1653977 56.6740303 20.0
-10.0258026 57.8827058 20.0
-7.8871728 59.0924797 20.0
-5.7498617 60.3041725 20.0
-3.6134467 61.5168114 20.0
-1.4783519 62.731163 20.0
0.6564672 63.9460144 20.0
2.7902622 65.1617813 20.0
4.923359 66.3786392 20.0
7.0556846 67.5959244 20.0
9.1872854 68.8139801 20.0
11.3190003 70.0323181 20.0
13.4498101 71.250557 20.0
15.5804549 72.4693756 20.0
17.7104683 73.6883774 20.0
19.84021 74.9069596 20.0
21.9701042 76.1258545 20.0
24.0991974 77.3442078 20.0
26.2283573 78.5623245 20.0
28.357748 79.7804642 20.0
30.4864979 80.9973602 20.0
32.6156121 82.2141342 20.0
34.7446213 83.4301453 20.0
36.8732948 84.644989 20.0
39.0026665 85.8592988 20.0
41.1318169 87.0717621 20.0
43.2615395 88.2836151 20.0
45.3920593 89.4939804 20.0
47.5225258 90.7017441 20.0
49.6538315 91.9084854 20.0
51.7869454 93.1130524 20.0
53.920498 94.3148575 20.0
56.0549889 95.5138321 20.0
58.1923332 96.7090683 20.0
60.3311691 97.90271 20.0
62.4727936 99.0923004 20.0
64.6184845 100.2794113 20.0
66.7648087 101.4621887 20.0
68.9172058 102.6434403 20.0
71.0711594 103.8226166 20.0
73.2274323 105.0012894 20.0
-25.0398827 47.0059395 20.0
-22.8932896 48.2060623 20.0
-20.7473622 49.4065399 20.0
-18.6024685 50.6083222 20.0
-16.4588776 51.8110695 20.0
-14.3163738 53.0153694 20.0
-12.1751261 54.2212563 20.0
-10.0351334 55.4283448 20.0
-7.8963594 56.6374665 20.0
-5.7589803 57.8479118 20.0
-3.6222382 59.0591621 20.0
-1.4867518 60.2724533 20.0
0.647456 61.4865074 20.0
2.7814291 62.7012024 20.0
4.9142548 63.9172212 20.0
7.0466123 65.1334152 20.0
9.1782017 66.3507233 20.0
11.3089972 67.5681687 20.0
13.439785 68.7858048 20.0
15.569768 70.0040359 20.0
17.6991902 71.2220612 20.0
19.8287392 72.4402924 20.0
21.957819 73.658226 20.0
24.0863361 74.8760758 20.0
26.2151184 76.0940018 20.0
28.343483 77.3108673 20.0
30.4715805 78.5276718 20.0
32.5996781 79.743927 20.0
34.7277451 80.9591522 20.0
36.8562164 82.1742172 20.0
38.9841728 83.3877869 20.0
41.1129532 84.6004944 20.0
43.2414818 85.8120499 20.0
45.3704491 87.0219574 20.0
47.5004196 88.2306137 20.0
49.6304131 89.4369431 20.0
51.7616463 90.6418839 20.0
53.8940812 91.8445664 20.0
56.0279503 93.0449142 20.0
58.163147 94.2423325 20.0
60.3004799 95.4364243 20.0
62.4401741 96.628418 20.0
64.5823746 97.8166123 20.0
66.7283097 99.0024261 20.0
68.87677 100.1866837 20.0
71.0285416 101.3673554 20.0
73.1836014 102.5491867 20.0
-25.0527458 44.5588265 20.0
-22.9057828 45.7584267 20.0
-20.7592907 46.9584312 20.0
-18.6138802 48.1588211 20.0