POSCAR file written by OVITO
1
53.264 0.0 0.0
-26.632 46.1279984 0.0
0.0 0.0 40.0
C Si 
938 938 
Cartesian
-24.5421639 44.831276 20.0
-22.3740597 45.994362 20.0
-22.4508076 43.5367928 20.0
-20.2826958 44.7028046 20.0
-18.115778 45.8735238 20.0
-22.5248413 41.080574 20.0
-20.3569031 42.2465134 20.0
-18.1889744 43.4161263 20.0
-16.0222359 44.5907822 20.0
-13.8569984 45.7700768 20.0
-20.4275513 39.791771 20.0
-18.2598419 40.9609948 20.0
-16.0925694 42.1344452 20.0
-13.9261714 43.3126335 20.0
-11.7613449 44.4952431 20.0
-9.5980912 45.6817971 20.0
-20.493681 37.3383217 20.0
-18.3270378 38.5076142 20.0
-16.1602211 39.6804085 20.0
-13.9935722 40.8572388 20.0
-11.8279438 42.0385513 20.0
-9.6637974 43.2238464 20.0
-7.500875 44.412529 20.0
-5.339118 45.6037674 20.0
-18.3897896 36.0554733 20.0
-16.2239285 37.227932 20.0
-14.0578775 38.4038086 20.0
-11.8924322 39.5837212 20.0
-9.728097 40.7677269 20.0
-7.5646534 41.9550018 20.0
-5.4024005 43.1452904 20.0
-3.2411559 44.3376541 20.0
-1.0803118 45.5311737 20.0
-18.4477825 33.6041603 20.0
-16.2832699 34.7764778 20.0
-14.118021 35.9515916 20.0
-11.9533758 37.1303406 20.0
-9.7894488 38.3128586 20.0
-7.6262322 39.4987946 20.0
-5.4643393 40.6877976 20.0
-3.3031709 41.8792076 20.0
-1.1425834 43.0721359 20.0
1.0177734 44.2658539 20.0
3.1782317 45.4595833 20.0
-16.3386688 32.3259583 20.0
-14.174798 33.5006256 20.0
-12.0107708 34.6782341 20.0
-9.8476734 35.8593292 20.0
-7.6850562 37.0436745 20.0
-5.5236459 38.2312393 20.0
-3.3632026 39.4212876 20.0
-1.2033185 40.6133156 20.0
0.956236 41.806408 20.0
3.1157012 42.9999428 20.0
5.2756224 44.1930504 20.0
7.4362874 45.3849106 20.0
-16.3905258 29.8757382 20.0
-14.227788 31.0502987 20.0
-12.0648937 32.2270393 20.0
-9.902526 33.4068298 20.0
-7.7408433 34.5895615 20.0
-5.580236 35.7755013 20.0
-3.4205051 36.9640236 20.0
-1.2617232 38.1546822 20.0
0.8967 39.3468514 20.0
3.0548 40.5397568 20.0
5.2131834 41.7326546 20.0
7.3722015 42.9246636 20.0
9.532218 44.114933 20.0
11.6938133 45.3023605 20.0
-14.2780285 28.6004372 20.0
-12.1159887 29.7765427 20.0
-9.9543524 30.9549848 20.0
-7.7934509 32.1362305 20.0
-5.6337538 33.3203545 20.0
-3.4750061 34.5072479 20.0
-1.3172835 35.6963806 20.0
0.839707 36.8872108 20.0
2.9963596 38.079155 20.0
5.1528792 39.2714119 20.0
7.3098741 40.4632073 20.0
9.4677267 41.6536026 20.0
11.6267691 42.8417358 20.0
13.7877674 44.0264664 20.0
15.9506808 45.2070923 20.0
-14.3262043 26.150753 20.0
-12.1647873 27.3264637 20.0
-10.0037451 28.5037899 20.0
-7.8435226 29.6834793 20.0
-5.6844478 30.8658638 20.0
-3.5266443 32.0508041 20.0
-1.3699564 33.2382546 20.0
0.7857436 34.427536 20.0
2.9407268 35.6181526 20.0
5.0954561 36.8094406 20.0
7.2502575 38.0005951 20.0
9.4056101 39.1907883 20.0
11.5620699 40.3790741 20.0
13.7199755 41.564579 20.0
15.8800926 42.7461548 20.0
18.0423698 43.9231912 20.0
20.2071705 45.0949631 20.0
-12.2121506 24.8766422 20.0
-10.0514116 26.0530643 20.0
-7.8915544 27.2312088 20.0
-5.7329912 28.4117813 20.0
-3.5758567 29.5948792 20.0
-1.4201055 30.780283 20.0
0.7345161 31.9678422 20.0
2.8880484 33.1569138 20.0
5.0409617 34.3469238 20.0
7.1938682 35.5371208 20.0
9.3467083 36.72678 20.0
11.5004225 37.9149246 20.0
13.6554051 39.1006813 20.0
15.8120938 40.2831421 20.0
17.9712068 41.4611244 20.0
20.132843 42.6344338 20.0
22.2973004 43.8025551 20.0
24.4640351 44.9666482 20.0
-12.2588978 22.4269924 20.0
-10.0981722 23.6026192 20.0
-7.9384198 24.7794705 20.0
-5.779964 25.9580956 20.0
-3.6231773 27.1391735 20.0
-1.4679697 28.3225594 20.0
0.6856105 29.5081368 20.0
2.8379789 30.6955281 20.0
4.9895774 31.8839494 20.0
7.1404972 33.0729942 20.0
9.2912674 34.2618141 20.0
11.4424038 35.4496041 20.0
13.5946436 36.635418 20.0
15.7481909 37.8183747 20.0
17.9036618 38.997448 20.0
20.0620365 40.1721916 20.0
22.2230587 41.3419762 20.0
24.3873596 42.5074349 20.0
26.5539704 43.6697693 20.0
-10.1448517 21.1524448 20.0
-7.9847622 22.3279514 20.0
-5.8261519 23.5048619 20.0
-3.6694141 24.6838074 20.0
-1.5144924 25.8650684 20.0
0.6385388 27.0485897 20.0
2.7901442 28.2339077 20.0
4.9405594 29.4207249 20.0
7.0899196 30.6083889 20.0
9.2390366 31.7961788 20.0
11.388155 32.9833488 20.0
13.537592 34.1690102 20.0
15.6885071 35.3523064 20.0
17.8408376 36.5322457 20.0
19.9956398 37.7083321 20.0
22.1535645 38.8801346 20.0
24.3143826 40.047451 20.0
26.4786339 41.2113152 20.0
28.6453247 42.3737717 20.0
-10.1923819 18.702425 20.0
-8.0315876 19.8768044 20.0
-5.872436 21.0519714 20.0
-3.7153397 22.2288876 20.0
-1.5602681 23.4077358 20.0
0.5925632 24.5891152 20.0
2.7436888 25.7723446 20.0
4.8932366 26.9573154 20.0
7.0416083 28.143467 20.0
9.1893425 29.3300381 20.0
11.3368015 30.5164547 20.0
13.4844275 31.7018452 20.0
15.6327553 32.8853646 20.0
17.7827683 34.0662613 20.0
19.9344922 35.2435761 20.0
22.0890808 36.4171257 20.0
24.2468739 37.5865898 20.0
26.408041 38.7528801 20.0
28.5727215 39.9168244 20.0
-8.0798779 17.4258728 20.0
-5.9196678 18.5993767 20.0
-3.7617507 19.7741547 20.0
-1.6061983 20.950781 20.0
0.5470513 22.1295109 20.0
2.6980853 23.3105888 20.0
4.8472242 24.4936543 20.0
6.9949074 25.6782036 20.0
9.1416225 26.8635884 20.0
11.2878733 28.0491314 20.0
13.4341297 29.2341957 20.0
15.5807829 30.4178963 20.0
17.7285538 31.599514 20.0
19.8782196 32.7783203 20.0
22.0300293 33.9536972 20.0
24.1850643 35.1256867 20.0
26.3433952 36.2941551 20.0
28.5049916 37.4602661 20.0
30.6699295 38.6254502 20.0
-8.1304693 14.975009 20.0
-5.9689632 16.1470928 20.0
-3.8096717 17.3196297 20.0
-1.6531314 18.4939041 20.0
0.5008196 19.6701718 20.0
2.6522167 20.8489418 20.0
4.8013983 22.0300083 20.0
6.9489298 23.2127438 20.0
9.0951881 24.3968353 20.0
11.2406883 25.5815525 20.0
13.3859511 26.7662277 20.0
15.5314961 27.9500772 20.0
17.6778565 29.1324024 20.0
19.8257389 30.3126545 20.0
21.9757062 31.4898358 20.0
24.1282501 32.6642037 20.0
26.2841263 33.8353234 20.0
28.4432144 35.0037804 20.0
30.6055279 36.1709595 20.0
-6.0212975 13.6948099 20.0
-3.8603446 14.8654872 20.0
-1.7021243 16.0371227 20.0
0.4529423 17.2110424 20.0
2.6052654 18.3873348 20.0
4.7550836 19.566061 20.0
6.9028302 20.7470818 20.0
9.0490847 21.9298898 20.0
11.1943665 23.1137791 20.0
13.3392086 24.29813 20.0
15.4841271 25.4822445 20.0
17.6297016 26.6653614 20.0
19.7764378 27.8468246 20.0
21.9249878 29.0260677 20.0
24.0759296 30.2024803 20.0
26.2295838 31.3763027 20.0
28.3865986 32.5473862 20.0
30.54669 33.7167549 20.0
32.7095261 34.8855554 20.0
-6.0774217 11.2425137 20.0
-3.9146126 12.4113493 20.0
-1.7545601 13.5806875 20.0
0.4024779 14.7518015 20.0
2.5561538 15.925664 20.0
4.7071047 17.1021156 20.0
6.8556666 18.281353 20.0
9.0024023 19.4628067 20.0
11.1479836 20.6459217 20.0
13.2928791 21.8300076 20.0
15.4377308 23.0143547 20.0
17.5829849 24.1982765 20.0
19.7292481 25.3809948 20.0
21.8769722 26.562048 20.0
24.0267601 27.7408543 20.0
26.1790791 28.9170838 20.0
28.334137 30.09095 20.0
30.4923859 31.2626095 20.0
32.6532746 32.4332428 20.0
-3.9734336 9.9571944 20.0
-1.8111753 11.1243267 20.0
0.3480494 12.2929506 20.0
2.5038877 13.4639817 20.0
4.6564217 14.6382857 20.0
6.8064103 15.815548 20.0
8.9542494 16.9956856 20.0
11.1006107 18.1780376 20.0
13.2461519 19.3618946 20.0
15.3913612 20.5465603 20.0
17.5368634 21.7312775 20.0
19.6831074 22.9153672 20.0
21.8306103 24.0981503 20.0
23.9798088 25.2791805 20.0
26.1312409 26.4578476 20.0
28.2851601 27.6342221 20.0
30.4417172 28.8084526 20.0
32.6010514 29.9810334 20.0
34.762497 31.153101 20.0
-4.0376606 7.5027733 20.0
-1.8728064 8.6679621 20.0
0.28882 9.8340836 20.0
2.4471753 11.0026026 20.0
4.6021328 12.1744175 20.0
6.7539864 13.349906 20.0
8.903597 14.5286217 20.0
11.0513706 15.7102556 20.0
13.1980286 16.8939438 20.0
15.3442164 18.0789681 20.0
17.4904042 19.2645283 20.0
19.6371422 20.449913 20.0
21.7848912 21.6343994 20.0
23.9340192 22.8174668 20.0
26.0850201 23.9985868 20.0
28.2382183 25.1774139 20.0
30.3938103 26.3539887 20.0
32.551754 27.528719 20.0
34.7119446 28.7022515 20.0
-1.9404336 6.2114415 20.0
0.2241524 7.3753262 20.0
2.3852034 8.541441 20.0
4.5430227 9.7109175 20.0
6.697609 10.8844806 20.0
8.8494492 12.061985 20.0
10.9993678 13.2427559 20.0
13.147707 14.4262839 20.0
15.2953577 15.6116686 20.0
17.4427796 16.7980709 20.0
19.5904351 17.9846668 20.0
21.7387753 19.1708584 20.0
23.88834 20.3558273 20.0
26.0393925 21.5391541 20.0
28.1923542 22.7204037 20.0
30.3474388 23.8992406 20.0
32.5045548 25.0761375 20.0
34.6636887 26.2513352 20.0
36.8244438 27.4257374 20.0
-2.0132594 3.7544384 20.0
0.1534667 4.9168224 20.0
2.3177765 6.0807247 20.0
4.4786663 7.2481771 20.0
6.636395 8.4196549 20.0
8.7912188 9.5957976 20.0
10.9436932 10.7759104 20.0
13.0945015 11.9591104 20.0
15.243988 13.1447897 20.0
17.3931275 14.3319531 20.0
19.542141 15.5197573 20.0
21.6916771 16.7073517 20.0
23.8419858 17.8942184 20.0
25.9936008 19.0795345 20.0
28.1466885 20.2630062 20.0
30.3015251 21.4443474 20.0
32.4583702 22.6231785 20.0
34.61689 23.8001843 20.0
36.7769623 24.97571 20.0
0.0780843 2.4583519 20.0
2.2447884 3.6207724 20.0
4.4090266 4.7861166 20.0
6.570149 5.9561292 20.0
8.7283802 7.1306028 20.0
10.884018 8.3099022 20.0
13.0374184 9.4927025 20.0
15.1896973 10.6785536 20.0
17.3407173 11.866336 20.0
19.4916725 13.0551548 20.0
21.6425572 14.2442074 20.0
23.793953 15.4327259 20.0
25.9464912 16.620039 20.0
28.1000881 17.8056069 20.0
30.2553806 18.9889202 20.0
32.4121208 20.1700344 20.0
34.5704422 21.3487778 20.0
36.7302742 22.5255509 20.0
38.8910066 23.7011605 20.0
-2.5707777e-06 -4.6536813e-06 20.0
2.168051 1.1615145 20.0
4.334796 2.3255606 20.0
6.49925 3.4936772 20.0
8.660902 4.6670714 20.0
10.8200226 5.8450618 20.0
12.9766418 7.0274482 20.0
15.1316824 8.2132664 20.0
17.2853832 9.4014082 20.0
19.4383965 10.5910559 20.0
21.5911217 11.7812748 20.0
23.7439957 12.9713012 20.0
25.8975316 14.1603804 20.0
28.0522194 15.3479004 20.0
30.2080364 16.5332527 20.0
32.3650704 17.7164173 20.0
34.5236664 18.8969518 20.0
36.6834717 20.0751305 20.0
38.8442612 21.2514954 20.0
6.4249249 1.0333024 20.0
8.5897131 2.2051396 20.0
10.7520361 3.3821828 20.0
12.9121408 4.563644 20.0
15.0699997 5.7491045 20.0
17.2265339 6.9374366 20.0
19.3818722 8.1276188 20.0
21.5365486 9.3187933 20.0
23.6913681 10.5100565 20.0
25.846449 11.7006283 20.0
28.0022125 12.8898574 20.0
30.1587734 14.077363 20.0
32.3164482 15.2623739 20.0
34.4756012 16.4446945 20.0
36.6357956 17.6243878 20.0
38.7969361 18.80163 20.0
40.958294 19.9773788 20.0
10.6814442 0.92121 20.0
12.8443546 2.1018763 20.0
15.0053692 3.2865205 20.0
17.1643734 4.4746161 20.0
19.3223019 5.665031 20.0
21.4792576 6.8568044 20.0
23.6358376 8.0490208 20.0
25.792387 9.2409783 20.0
27.949255 10.4318466 20.0
30.1072025 11.6208611 20.0
32.2658272 12.8078079 20.0
34.425499 13.9919434 20.0
36.5865059 15.1731119 20.0
38.7481156 16.3515759 20.0
40.9101334 17.5276985 20.0
14.9382878 0.8259027 20.0
17.0999031 2.0132728 20.0
19.2599163 3.2035267 20.0
21.4189358 4.3955174 20.0
23.5772629 5.5884133 20.0
25.7354889 6.781271 20.0
27.893837 7.9734598 20.0
30.0526695 9.1640892 20.0
32.2123718 10.3526249 20.0
34.3728943 11.5386153 20.0
36.5345192 12.7213917 20.0
38.6970978 13.9010544 20.0
40.8598976 15.0778742 20.0
43.0226288 16.2524548 20.0
19.195816 0.7432216 20.0
21.3564682 1.935084 20.0
23.5163822 3.1281931 20.0
25.6758843 4.3217201 20.0
27.8353596 5.5148449 20.0
29.9953022 6.7068582 20.0
32.1558304 7.896875 20.0
34.3173027 9.0844173 20.0
36.479702 10.2689028 20.0
38.643013 11.4498968 20.0
40.8069229 12.6276045 20.0
42.9707222 13.8023176 20.0
23.4538555 0.6685325 20.0
25.6143151 1.8622792 20.0
27.7746353 3.0560243 20.0
29.9352342 4.2489648 20.0
32.0964584 5.4403692 20.0
34.2584458 6.6293426 20.0
36.4214897 7.8153825 20.0
38.5855522 8.9978352 20.0
40.7503433 10.176507 20.0
42.9153786 11.3517571 20.0
45.0798225 12.5240975 20.0
27.7124043 0.5969842 20.0
29.8732186 1.7905268 20.0
32.0345955 2.9828472 20.0
34.1968308 4.1731501 20.0
36.3600197 5.3605642 20.0
38.5244217 6.5445485 20.0
40.689888 7.7244549 20.0
42.8559686 8.9003124 20.0
45.0219154 10.0727167 20.0
31.9712468 0.5243883 20.0
34.1329613 1.7156545 20.0
36.2959328 2.9043136 20.0
38.4602547 4.0895085 20.0
40.62566 5.2709465 20.0
42.7924004 6.4477177 20.0
44.9590836 7.6205769 20.0
47.1257935 8.7898283 20.0
36.2301674 0.4463715 20.0
38.3934631 1.6328825 20.0
40.5582199 2.815532 20.0
42.7246819 3.9936652 20.0
44.8919564 5.167109 20.0
47.0597496 6.3362932 20.0
40.4891587 0.3579285 20.0
42.6541481 1.5374365 20.0
44.8210297 2.7119451 20.0
46.989029 3.8815096 20.0
49.1568337 5.0475039 20.0
44.7478867 0.2544375 20.0
46.9147302 1.4252283 20.0
49.082901 2.5912082 20.0
49.006134 0.1336929 20.0
51.1742172 1.2968432 20.0
-23.7934494 46.0381203 20.0
-23.8709602 43.580204 20.0
-21.7026997 44.744133 20.0
-19.5352211 45.911808 20.0
-21.7779713 42.2874489 20.0
-19.6097279 43.4545403 20.0
-17.4423752 44.6260338 20.0
-15.2766361 45.8026963 20.0
-21.8495484 39.8321877 20.0
-19.682005 40.999241 20.0
-17.5141812 42.1700134 20.0
-15.347148 43.345253 20.0
-13.1817284 44.5255356 20.0
-11.0178013 45.7098961 20.0
-19.7500229 38.5454598 20.0
-17.5829201 39.7158547 20.0
-15.4158068 40.890213 20.0
-13.2495003 42.0689011 20.0
-11.0844765 43.2520867 20.0
-8.9210464 44.4390373 20.0
-6.7587719 45.6289292 20.0
-19.8130188 36.0927658 20.0
-17.647316 37.2631645 20.0
-15.4810334 38.4368859 20.0
-13.3147144 39.6143685 20.0
-11.1496887 40.796154 20.0
-8.9854984 41.981762 20.0
-6.8228116 43.1706772 20.0
-4.6609273 44.3620224 20.0
-2.4998772 45.5550576 20.0
-17.7071629 34.8116341 20.0
-15.5421477 35.9848976 20.0
-13.3768501 37.1615791 20.0
-11.2120676 38.3419762 20.0
-9.0480509 39.5260201 20.0
-6.8853532 40.7136879 20.0
-4.7233944 41.903885 20.0
-2.5622838 43.0961838 20.0
-0.4017086 44.2896881 20.0
1.7587438 45.4835968 20.0
-17.7630673 32.3608093 20.0
-15.5990772 33.5339813 20.0
-13.4349327 34.7097893 20.0
-11.2706995 35.888897 20.0
-9.1075134 37.0716171 20.0
-6.9452754 38.2576752 20.0
-4.7839484 39.4466782 20.0
-2.6233187 40.6378021 20.0
-0.4633241 41.8305969 20.0
1.6965214 43.024128 20.0
3.8564458 44.217701 20.0
6.0170002 45.4104271 20.0
-15.6525107 31.0837021 20.0
-13.4894781 32.25914 20.0
-11.3263245 33.4370423 20.0
-9.1636925 34.6182442 20.0
-7.0023212 35.8027535 20.0
-4.8415422 36.9900284 20.0
-2.6818707 38.1799126 20.0
-0.5229485 39.3715782 20.0
1.6358257 40.5643959 20.0
3.7944358 41.7576027 20.0
5.953536 42.9503938 20.0
8.1135368 44.1418266 20.0
10.2746954 45.3310547 20.0
-15.7030258 28.6338101 20.0
-13.5407362 29.8088627 20.0
-11.3786125 30.9860268 20.0
-9.2168617 32.1657028 20.0
-7.0561399 33.3485756 20.0
-4.8964038 34.5341835 20.0
-2.7376704 35.7224236 20.0
-0.5798244 36.9127464 20.0
1.5774006 38.1044426 20.0
3.7345562 39.2969208 20.0
5.8918514 40.4893227 20.0
8.0497761 41.6808586 20.0
10.208849 42.8705102 20.0
12.3693342 44.0574417 20.0
14.5318032 45.2405739 20.0
-13.5898047 27.3590698 20.0
-11.4282646 28.53545 20.0
-9.2672777 29.7139282 20.0
-7.1071992 30.8949796 20.0
-4.9483118 32.0789185 20.0
-2.7906118 33.2653427 20.0
-0.6339161 34.4540406 20.0
1.5219751 35.6443787 20.0
3.6773255 36.8357086 20.0
5.8327618 38.0273628 20.0
7.9884114 39.2185097 20.0
10.1449165 40.4082451 20.0
12.3028221 41.5955849 20.0
14.4623671 42.7797051 20.0
16.6242581 43.959404 20.0
18.7883301 45.1343498 20.0
-13.637229 24.9094734 20.0
-11.4761534 26.085268 20.0
-9.3155813 27.2625942 20.0
-7.1560025 28.4420243 20.0
-4.997757 29.6240311 20.0
-2.840821 30.8086071 20.0
-0.6852449 31.9954224 20.0
1.4693887 33.1841393 20.0
3.6231852 34.374115 20.0
5.7766104 35.5646706 20.0
7.9301038 36.7551041 20.0
10.084055 37.944542 20.0
12.2390833 39.1320572 20.0
14.3956175 40.3166123 20.0
16.5540715 41.4975128 20.0
18.7152424 42.673584 20.0
20.8788644 43.844677 20.0
23.0449715 45.0108185 20.0
-11.523036 23.6354046 20.0
-9.3626042 24.8116169 20.0
-7.2032719 25.9895612 20.0
-5.0453348 27.1696186 20.0
-2.8890388 28.3521977 20.0
-0.734069 29.5369931 20.0
1.4193468 30.723835 20.0
3.5718873 31.9122124 20.0
5.7236901 33.1014404 20.0
7.8750482 34.2908859 20.0
10.0267525 35.4797173 20.0
12.1788759 36.6670494 20.0
14.3323441 37.8518868 20.0
16.4876385 39.0334282 20.0
18.645113 40.2108917 20.0
20.8055554 41.3832245 20.0
22.9688474 42.551136 20.0
25.1348095 43.7148094 20.0
27.3025894 44.8763314 20.0
-11.5697842 21.1856442 20.0
-9.4091435 22.3610134 20.0
-7.2496448 23.5373745 20.0
-5.0917668 24.7156334 20.0
-2.9355968 25.8959846 20.0
-0.7813093 27.0788002 20.0
1.3714666 28.263628 20.0
3.5228751 29.4501095 20.0
5.6732159 30.637888 20.0
7.8230248 31.8260613 20.0
9.9725752 33.0140381 20.0
12.1224728 34.2009277 20.0
14.2732086 35.3859749 20.0
16.4254933 36.5681038 20.0
18.5797177 37.7465821 20.0
20.7364006 38.9206314 20.0
22.8964138 40.0899773 20.0
25.0595474 41.2555466 20.0
27.2256069 42.4182472 20.0
-9.45607 19.9106236 20.0
-7.2960205 21.0855598 20.0
-5.1377287 22.2618446 20.0
-2.9813994 23.4400788 20.0
-0.8272122 24.6205979 20.0
1.3251658 25.8032837 20.0
3.4758821 26.9878712 20.0
5.6251488 28.1739235 20.0
7.7737222 29.3607712 20.0
9.9215652 30.5477638 20.0
12.0694981 31.7341137 20.0
14.2179632 32.9189568 20.0
16.3675156 34.1016312 20.0
18.5188713 35.2809487 20.0
20.6725254 36.4566422 20.0
22.8291588 37.6283226 20.0
24.9893036 38.7958603 20.0
27.1524181 39.9602814 20.0
29.318533 41.1234436 20.0
-9.5042877 17.4603653 20.0
-7.3434181 18.6341343 20.0
-5.1843119 19.8085327 20.0
-3.0274007 20.984499 20.0
-0.8729292 22.1627731 20.0
1.2794804 23.3430348 20.0
3.4297693 24.5256577 20.0
5.5785365 25.7098389 20.0
7.7261429 26.895155 20.0
9.8730212 28.0810642 20.0
12.0194149 29.2667675 20.0
14.1662216 30.45154 20.0
16.3136826 31.6343842 20.0
18.4626293 32.8149414 20.0
20.6138306 33.9922066 20.0
22.7674675 35.165741 20.0
24.9244042 36.3356629 20.0
27.0849228 37.5023804 20.0
29.2484074 38.6672821 20.0
-7.392663 16.1827736 20.0
-5.2324267 17.3554173 20.0
-3.0744264 18.5291825 20.0
-0.9191336 19.704958 20.0
1.233612 20.8830128 20.0
3.3841698 22.0631447 20.0
5.5326772 23.2455502 20.0
7.679822 24.4292984 20.0
9.8258801 25.6140747 20.0
11.9715148 26.799099 20.0
14.1170168 27.9836578 20.0
16.2631645 29.1670342 20.0
18.410347 30.3482514 20.0
20.5593338 31.5271149 20.0
22.710865 32.7027855 20.0
24.8651028 33.8750344 20.0
27.0228958 35.0444412 20.0
29.1840439 36.2114945 20.0
31.3479366 37.3779068 20.0
-7.4448853 13.7315083 20.0
-5.2830053 14.9025536 20.0
-3.1236394 16.0741158 20.0
-0.9669428 17.2472954 20.0
1.1867677 18.4227295 20.0
3.3378675 19.6007138 20.0
5.4867416 20.7809849 20.0
7.6337862 21.9633046 20.0
9.7796335 23.146883 20.0
11.9247646 24.3312149 20.0
14.0696859 25.5155792 20.0
16.2148953 26.699318 20.0
18.3610535 27.8815976 20.0
20.5086689 29.0618286 20.0
22.65835 30.2396374 20.0
24.8107758 31.4143696 20.0
26.9661294 32.5863266 20.0
29.1248665 33.755867 20.0
31.2866783 34.9241754 20.0
-5.3372641 12.44977 20.0
-3.1759369 13.6192227 20.0
-1.0175623 14.7900133 20.0
1.137754 15.9627342 20.0
3.2899475 17.1383305 20.0
5.4396267 18.3164425 20.0
7.5872498 19.4969979 20.0
9.7333145 20.6795388 20.0
11.878482 21.8632298 20.0
14.0232525 23.0474949 20.0
16.1681824 24.231596 20.0
18.313736 25.4149189 20.0
20.4605923 26.5966282 20.0
22.60919 27.7763081 20.0
24.760088 28.9535314 20.0
26.9138204 30.1280556 20.0
29.0704536 31.3002701 20.0
31.2302456 32.4706955 20.0
33.3925896 33.6406594 20.0
-5.3958936 9.9968406 20.0
-3.2324317 11.1644535 20.0
-1.0719163 12.3326426 20.0
1.0853255 13.5028792 20.0
3.2394312 14.6758013 20.0
5.3903899 15.8518506 20.0
7.5391202 17.0307751 20.0
9.6860171 18.2120571 20.0
11.8316994 19.3952007 20.0
13.9768476 20.5794144 20.0
16.1219349 21.7640038 20.0
18.2675209 22.9482404 20.0
20.4140701 24.1315098 20.0
22.5621701 25.3130798 20.0
24.712225 26.4926262 20.0
26.864706 27.6697426 20.0
29.0199451 28.8444748 20.0
31.1778717 30.0173187 20.0
33.3385162 31.1889458 20.0
-3.2940986 8.7095747 20.0
-1.1309819 9.8755256 20.0
1.0287035 11.0431395 20.0
3.1849492 12.2135525 20.0
5.3381138 13.3872738 20.0
7.4883886 14.5645199 20.0
9.6367178 15.7446528 20.0
11.7835503 16.9272138 20.0
13.9295416 18.1114464 20.0
16.0753346 19.2965698 20.0
18.2213879 20.4818135 20.0
20.3682156 21.6665058 20.0
22.5162812 22.8500024 20.0
24.6660271 24.0316982 20.0
26.8178349 25.2112866 20.0
28.9720498 26.3885059 20.0
31.1287575 27.5636921 20.0
33.2878189 28.7372723 20.0
35.4490433 29.9101926 20.0
-3.3611057 6.2542853 20.0
-1.1957727 7.4184046 20.0
0.9668274 8.5835018 20.0
3.125792 9.7514601 20.0
5.2814665 10.9230528 20.0
7.4342432 12.0984802 20.0
9.5844612 13.2775383 20.0
11.7330599 14.4594717 20.0
13.8805286 15.6437311 20.0
16.027462 16.8293743 20.0
18.1745358 18.0156384 20.0
20.3220787 19.2016773 20.0
22.4705658 20.3869362 20.0
24.6204586 21.5707512 20.0
26.7720299 22.7526913 20.0
28.925724 23.9323902 20.0
31.0816689 25.1097698 20.0
33.239727 26.2853985 20.0
35.3997307 27.4597073 20.0
-1.2661626 4.9610234 20.0
0.898949 6.1242065 20.0
3.0612872 7.2897639 20.0
5.2199664 8.4593144 20.0
7.3755865 9.6329928 20.0
9.5286055 10.8108492 20.0
11.6794577 11.9922876 20.0
13.8290015 13.1764393 20.0
15.9776946 14.3625784 20.0
18.1259823 15.5497341 20.0
20.2747593 16.7371578 20.0
22.4240227 17.9240704 20.0
24.5744591 19.1098824 20.0
26.7263661 20.2939568 20.0
28.8800584 21.4758625 20.0
31.0355167 22.6557236 20.0
33.1930924 23.83317 20.0
35.3523255 25.0090923 20.0
37.5129738 26.1840134 20.0
-1.3414024 2.5033787 20.0
0.8259529 3.6652298 20.0
2.9909866 4.8289576 20.0
5.1532545 5.9962392 20.0
7.3121381 7.1684313 20.0
9.468216 8.3448811 20.0
11.6220675 9.5256853 20.0
13.7741413 10.7098227 20.0
15.925065 11.8962622 20.0
18.0753746 13.0842533 20.0
20.2254181 14.2728844 20.0
22.3761482 15.4613295 20.0
24.5275707 16.6488438 20.0
26.6799546 17.8350983 20.0
28.8339978 19.0192051 20.0
30.9894486 20.201231 20.0
33.146843 21.3807907 20.0
35.3058243 22.5581494 20.0
37.4660034 23.7341385 20.0
0.7489028 1.2065253 20.0
2.9161804 2.3689861 20.0
5.0813103 3.5345259 20.0
7.2439113 4.7049423 20.0
9.4033651 5.8802786 20.0
11.5605145 7.0602293 20.0
13.7156105 8.2440758 20.0
15.8691274 9.4307432 20.0
18.0217037 10.6193304 20.0
20.1738606 11.8089571 20.0
22.3260288 12.998767 20.0
24.4786682 14.1880446 20.0
26.632227 15.3759747 20.0
28.7867794 16.5623055 20.0
30.9426824 17.7463665 20.0
33.1001854 18.9279214 20.0
35.2592011 20.1070519 20.0
37.4193649 21.2840729 20.0
39.5801888 22.4599095 20.0
5.0060191 1.0745896 20.0
7.171484 2.2434642 20.0
9.3345366 3.4173362 20.0
11.4948836 4.5963016 20.0
13.6532402 5.7795964 20.0
15.8096495 6.9662066 20.0
17.9648018 8.1551819 20.0
20.1191559 9.3455992 20.0
22.273222 10.5365286 20.0
24.4274311 11.7272253 20.0
26.5820599 12.9170122 20.0
28.7378197 14.105011 20.0
30.8944436 15.2911415 20.0
33.0523453 16.4746628 20.0
35.2118263 17.6553841 20.0
37.372139 18.8338585 20.0
39.5331688 20.0102997 20.0
9.2626238 0.9565092 20.0
11.426136 2.1343727 20.0
13.5873833 3.3167703 20.0
15.7468272 4.5029745 20.0
17.9045792 5.6920209 20.0
20.0612087 6.8829008 20.0
22.217413 8.0747204 20.0
24.3731842 9.2666235 20.0
26.529562 10.4577751 20.0
28.6863137 11.6476097 20.0
30.843874 12.8354883 20.0
33.0027542 14.0208817 20.0
35.1626663 15.2033958 20.0
37.3235169 16.3832474 20.0
39.4851799 17.5605049 20.0
41.6468849 18.7359715 20.0
13.5193138 0.8559778 20.0
15.6812439 2.0414169 20.0
17.84157 3.2300677 20.0
20.0004539 4.421072 20.0
22.1586742 5.6133809 20.0
24.3163414 6.8061633 20.0
26.473917 7.9985666 20.0
28.6321297 9.1898394 20.0
30.7908249 10.3793602 20.0
32.9505234 11.5664702 20.0
35.111187 12.7509136 20.0
37.2728424 13.9320898 20.0
39.4351845 15.1104317 20.0
41.5977593 16.2862415 20.0
17.7765694 0.7696606 20.0
19.9375134 1.9602788 20.0
22.0973282 3.1527383 20.0
24.2566128 4.3460059 20.0
26.4156571 5.5392971 20.0
28.5748959 6.7317696 20.0
30.7347813 7.9227596 20.0
32.8952332 9.1115627 20.0
35.0568199 10.2975321 20.0
37.2193108 11.4804163 20.0
39.3825112 12.6598349 20.0
41.5461388 13.8362236 20.0
43.7094002 15.0101938 20.0
22.0344734 0.692837 20.0
24.194891 1.886229 20.0
26.3550186 3.0799916 20.0
28.5151844 4.2733607 20.0
30.6757641 5.465519 20.0
32.8370743 6.6558151 20.0
34.9992638 7.8433462 20.0
37.1624451 9.0277271 20.0
39.3266144 10.208499 20.0
41.4911232 11.3856602 20.0
43.655716 12.5597096 20.0
26.2928505 0.6207422 20.0
28.4534779 1.8145849 20.0
30.6144276 3.0076237 20.0
32.7760124 4.1990342 20.0
34.9386102 5.3880882 20.0
37.1021843 6.5738755 20.0
39.2669296 7.756023 20.0
41.4323807 8.93427 20.0
43.5981331 10.1086369 20.0
45.7633324 11.2801066 20.0
30.5516167 0.5489647 20.0
32.7130509 1.7412004 20.0
34.8752824 2.9313928 20.0
37.0388794 4.11864 20.0
39.203598 5.302166 20.0
41.3696175 6.4815717 20.0
43.5361672 7.6567755 20.0
45.7028046 8.8280764 20.0
34.8106156 0.4732195 20.0
36.9733276 1.6615789 20.0
39.1374855 2.846535 20.0
41.3032265 4.0271578 20.0
43.4700127 5.2034411 20.0
45.6375313 6.3751264 20.0
47.804348 7.5433817 20.0
39.0694504 0.3889087 20.0
41.2340088 1.5709093 20.0
43.4002991 2.7481659 20.0
45.567688 3.9208212 20.0
47.7355385 5.089004 20.0
43.3282395 0.2909992 20.0
45.4945679 1.4646 20.0
47.6624298 2.6332958 20.0
49.8305435 3.7981234 20.0
47.5868035 0.1757041 20.0
49.7545777 1.341049 20.0
51.8448602 0.0453161 20.0
-24.4640255 44.9666596 23.3899994
-24.3872376 42.507473 23.3899994
-22.2972546 43.8027115 23.3899994
-20.2071419 45.0949478 23.3899994
-22.223011 41.3420754 23.3899994
-20.1328144 42.6344338 23.3899994
-18.0424881 43.9231492 23.3899994
-15.950677 45.2070351 23.3899994
-22.1534252 38.8801118 23.3899994
-20.0618591 40.1721993 23.3899994
-17.9712602 41.4612427 23.3899994
-15.8799906 42.7460213 23.3899994
-13.7877541 44.0264359 23.3899994
-11.6938496 45.3023186 23.3899994
-19.9957696 37.7084198 23.3899994
-17.9036884 38.9974976 23.3899994
-15.8120499 40.2829857 23.3899994
-13.7199459 41.5643692 23.3899994
-11.6268463 42.8416368 23.3899994
-9.5323382 44.114872 23.3899994
-7.4363113 45.3848877 23.3899994
-19.9345398 35.2436409 23.3899994
-17.840828 36.5322495 23.3899994
-15.7480936 37.8183213 23.3899994
-13.6553412 39.1006241 23.3899994
-11.561903 40.3789177 23.3899994
-9.4676924 41.6535721 23.3899994
-7.3722625 42.9246826 23.3899994
-5.2756205 44.1930656 23.3899994
-3.1782198 45.4596291 23.3899994
-17.7825852 34.0661507 23.3899994
-15.6883269 35.3521729 23.3899994
-13.5945244 36.635376 23.3899994
-11.5005465 37.9149818 23.3899994
-9.4057341 39.1907806 23.3899994
-7.309783 40.4631348 23.3899994
-5.2131372 41.7326317 23.3899994
-3.1157219 42.999939 23.3899994
-1.0177809 44.2658577 23.3899994
1.080305 45.5311699 23.3899994
-17.7285404 31.5994416 23.3899994
-15.6327486 32.8853188 23.3899994
-13.5378371 34.1690636 23.3899994
-11.4425354 35.4496269 23.3899994
-9.3467255 36.7267571 23.3899994
-7.2501874 38.0005035 23.3899994
-5.1528115 39.2713471 23.3899994
-3.0547793 40.5397492 23.3899994
-0.9562216 41.8063965 23.3899994
1.1425464 43.072113 23.3899994
3.2411366 44.3376274 23.3899994
5.3391323 45.6037979 23.3899994
-15.5808077 30.4178867 23.3899994
-13.4843664 31.7018566 23.3899994
-11.3879767 32.9832612 23.3899994
-9.2913437 34.2618561 23.3899994
-7.1938291 35.5371742 23.3899994
-5.0954843 36.809391 23.3899994
-2.9963164 38.0791054 23.3899994
-0.8965978 39.3468323 23.3899994
1.2033033 40.613266 23.3899994
3.3031457 41.879181 23.3899994
5.4024878 43.1453056 23.3899994
7.5009122 44.4125939 23.3899994
9.5981713 45.6817971 23.3899994
-15.5314808 27.9500772 23.3899994
-13.434124 29.2341957 23.3899994
-11.3367386 30.5165062 23.3899994
-9.2391024 31.7962513 23.3899994
-7.1403995 33.0729561 23.3899994
-5.0410147 34.3469238 23.3899994
-2.9407466 35.6180916 23.3899994
-0.8397216 36.8871728 23.3899994
1.2617064 38.1547127 23.3899994
3.3632147 39.4213104 23.3899994
5.4642754 40.6878472 23.3899994
7.5647125 41.95504 23.3899994
9.6638422 43.2239418 23.3899994
11.7613964 44.4953423 23.3899994
13.8570596 45.7701302 23.3899994
-13.386015 26.766243 23.3899994
-11.2878218 28.049078 23.3899994
-9.1893387 29.3301239 23.3899994
-7.0900264 30.6084423 23.3899994
-4.9895134 31.8839418 23.3899994
-2.8880442 33.1569176 23.3899994
-0.7857467 34.4274903 23.3899994
1.3172953 35.6963234 23.3899994
3.4206074 36.9640466 23.3899994
5.5236478 38.2312851 23.3899994
7.6263929 39.4988556 23.3899994
9.7280379 40.7676125 23.3899994
11.8280783 42.0386353 23.3899994
13.9262372 43.3127098 23.3899994
16.0221996 44.5906449 23.3899994
18.1156769 45.873478 23.3899994
-13.3392105 24.2981396 23.3899994
-11.240696 25.5815373 23.3899994
-9.141634 26.8635216 23.3899994
-7.0416865 28.1434937 23.3899994
-4.9405166 29.4207592 23.3899994
-2.8380714 30.6954499 23.3899994
-0.7344464 31.9678498 23.3899994
1.3699409 33.2382202 23.3899994
3.4750474 34.507206 23.3899994
5.5802703 35.7755127 23.3899994
7.6852322 37.0437622 23.3899994
9.7894573 38.3128853 23.3899994
11.892481 39.5836716 23.3899994
13.993599 40.8572998 23.3899994
16.0925503 42.134449 23.3899994
18.1890202 43.4160538 23.3899994
20.2826233 44.7028733 23.3899994
22.3740673 45.9944154 23.3899994
-11.1943665 23.1138039 23.3899994
-9.0952444 24.3968697 23.3899994
-6.9949728 25.6781998 23.3899994
-4.8933086 26.9573346 23.3899994
-2.7901495 28.2339077 23.3899994
-0.6856767 29.5081654 23.3899994
1.4201082 30.7803231 23.3899994
3.526603 32.0508614 23.3899994
5.6335836 33.3204155 23.3899994
7.7409063 34.5896302 23.3899994
9.847518 35.8593178 23.3899994
11.9534846 37.1304283 23.3899994
14.0578918 38.4036827 23.3899994
16.1601524 39.6803055 23.3899994
18.259943 40.9609796 23.3899994
20.3569565 42.2463761 23.3899994
22.4507408 43.5369034 23.3899994
24.5421543 44.8312874 23.3899994
-11.1479397 20.6459255 23.3899994
-9.0490942 21.9298992 23.3899994
-6.9489608 23.2127361 23.3899994
-4.8472358 24.4936466 23.3899994
-2.7437632 25.7723294 23.3899994
-0.6385376 27.0485153 23.3899994
1.4680933 28.3225479 23.3899994
3.5758379 29.594883 23.3899994
5.6845384 30.8658352 23.3899994
7.7935791 32.1362419 23.3899994
9.9024936 33.4067917 23.3899994
12.010931 34.678299 23.3899994
14.118145 35.951622 23.3899994
16.2239189 37.2277641 23.3899994
18.3271542 38.5075341 23.3899994
20.427578 39.7917404 23.3899994
22.5249348 41.0805626 23.3899994
24.6188126 42.3737183 23.3899994
26.7102242 43.6698036 23.3899994
-9.0023928 19.462801 23.3899994
-6.9028636 20.7470951 23.3899994
-4.8015008 22.0299187 23.3899994
-2.6980822 23.3106346 23.3899994