written by TR 
1.000000000 
19.230041500 0.000000000 0.000000000 
9.615020750 16.653704455 0.000000000 
0.000000000 0.000000000 18.353351600 
Type1 
244
Cartesian 
0.78873260 1.18298190 7.47905300 
-0.00014219 0.00065918 7.47897150 
3.15274020 4.73472500 7.47986080 
2.36489580 3.55219410 7.47971110 
2.99553540 2.27528530 7.47956040 
2.20649530 1.09314850 7.47926860 
5.51664590 8.28706170 7.48055600 
4.72859390 7.10443020 7.48059180 
5.35944180 5.82777070 7.48062520 
4.57154230 4.64532660 7.48029710 
5.20210550 3.36826330 7.48011400 
4.41321180 2.18570970 7.47981310 
5.04398060 0.90914240 7.47989370 
7.88102160 11.83908280 7.47992470 
7.09261940 10.65674980 7.48012310 
7.72298720 9.37998200 7.48041820 
6.93556640 8.19751740 7.48055990 
7.56632140 6.92078980 7.48072960 
6.77790410 5.73802620 7.48066670 
7.40856790 4.46136430 7.48070150 
6.62051200 3.27876240 7.48055030 
7.25136380 2.00250960 7.48046970 
6.46231180 0.81982800 7.48017360 
10.24528890 15.39051630 7.47918700 
9.45687960 14.20847040 7.47933060 
10.08766560 12.93165600 7.47954900 
9.29897310 11.74931050 7.47969110 
9.92962360 10.47277550 7.48017460 
9.14173220 9.29033190 7.48031330 
9.77259260 8.01389690 7.48086550 
8.98415180 6.83120730 7.48082020 
9.61489580 5.55487210 7.48085170 
8.82681470 4.37177280 7.48079210 
9.45776750 3.09582570 7.48085410 
8.66888430 1.91289840 7.48077820 
9.29993630 0.63691760 7.48065140 
12.45287040 16.48307230 7.47932150 
11.66372210 15.30073170 7.47917890 
12.29452710 14.02395150 7.47946500 
11.50610350 12.84181980 7.47946170 
12.13695050 11.56545450 7.47999380 
11.34824940 10.38277340 7.48006350 
11.97918320 9.10677050 7.48043440 
11.19105150 7.92408380 7.48064570 
11.82215310 6.64819480 7.48071010 
11.03337670 5.46534020 7.48082070 
11.66452410 4.18900010 7.48066670 
10.87601960 3.00663850 7.48060990 
11.50728710 1.73037320 7.48040340 
10.71831990 0.54745600 7.48047930 
13.87034240 16.39314840 7.47978790 
14.50114440 15.11698910 7.47986130 
13.71301370 13.93427760 7.47972060 
14.34362030 12.65833280 7.48009110 
13.55477910 11.47580050 7.48014260 
14.18585300 10.19948390 7.48040440 
13.39794920 9.01716040 7.48046210 
14.02897070 7.74096970 7.48052220 
13.24007990 6.55828670 7.48051120 
13.87112340 5.28252360 7.48046310 
13.08312420 4.09954550 7.48045970 
13.71399690 2.82366640 7.48005250 
12.92482660 1.64083450 7.48007680 
13.55572320 0.36454850 7.48002910 
16.70869640 16.21002010 7.48029190 
15.91971680 15.02784160 7.48015690 
16.55043220 13.75139330 7.48049210 
15.76164440 12.56853770 7.48045020 
16.39312750 11.29260640 7.48050640 
15.60454280 10.10976030 7.48060850 
16.23546220 8.83404350 7.48062090 
15.44688510 7.65112930 7.48055130 
16.07805820 6.37522600 7.48017650 
15.28975680 5.19275900 7.48014830 
15.92052180 3.91651200 7.47969060 
15.13160710 2.73393320 7.47969580 
15.76254370 1.45738250 7.47959520 
14.97399140 0.27493520 7.47967670 
18.12629320 16.12079620 7.48053740 
18.75719070 14.84499460 7.48067570 
17.96882440 13.66199110 7.48067190 
18.59988600 12.38589760 7.48090840 
17.81105040 11.20310880 7.48092130 
18.44193270 9.92688860 7.48077540 
17.65396310 8.74417880 7.48072870 
18.28495030 7.46776820 7.48039530 
17.49640850 6.28511720 7.48027900 
18.12724500 5.00856970 7.47963480 
17.33890730 3.82647610 7.47952610 
17.96965980 2.54979420 7.47918370 
17.18075750 1.36743610 7.47919130 
17.81160930 0.09045810 7.47918230 
-0.00012197 -0.00097269 10.87437920 
2.67972520 2.64279220 10.87389660 
2.04900980 1.36594930 10.87418380 
2.83720400 0.18346100 10.87405300 
4.57110030 6.46736910 10.87294780 
3.93999420 5.19136290 10.87321480 
4.72840360 4.00888200 10.87326920 
4.09745310 2.73262260 10.87364100 
4.88645600 1.54995470 10.87350180 
4.25556330 0.27337020 10.87357040 
6.46306370 10.29186060 10.87318620 
5.83197070 9.01602460 10.87280940 
6.62087970 7.83336880 10.87273980 
5.98948240 6.55715370 10.87276840 
6.77775960 5.37440490 10.87286000 
6.14676670 4.09845920 10.87290680 
6.93578100 2.91560400 10.87288760 
6.30469090 1.63950680 10.87320420 
7.09322550 0.45677800 10.87306320 
8.35439400 14.11691670 10.87419520 
7.72370200 12.84034640 10.87383460 
8.51248840 11.65820410 10.87372400 
7.88168960 10.38170630 10.87308220 
8.66942690 9.19907480 10.87296580 
8.03869250 7.92280100 10.87263200 
8.82719900 6.73994450 10.87258720 
8.19644360 5.46395450 10.87244040 
8.98439420 4.28115230 10.87245080 
8.35333730 3.00521710 10.87269500 
9.14235690 1.82238840 10.87269320 
8.51141930 0.54598450 10.87283800 
10.40370560 15.48370940 10.87430680 
9.77295500 14.20668700 10.87400720 
10.56124020 13.02460960 10.87381560 
9.93048380 11.74782660 10.87350180 
10.71885110 10.56540970 10.87342740 
10.08833790 9.28871730 10.87286000 
10.87659180 8.10624600 10.87283040 
10.24511820 6.82982300 10.87238980 
11.03354640 5.64719150 10.87247660 
10.40296840 4.37062500 10.87247180 
11.19166660 3.18778900 10.87261500 
10.56007010 1.91167000 10.87261880 
11.34910010 0.72887330 10.87278760 
11.82201480 15.57350730 10.87409120 
12.61036490 14.39142610 10.87380600 
11.97976300 13.11447240 10.87364960 
12.76834870 11.93209840 10.87350000 
12.13766670 10.65516000 10.87313940 
12.92506040 9.47279360 10.87302680 
12.29468540 8.19594570 10.87263020 
13.08295820 7.01339530 10.87269120 
12.45246600 5.73656320 10.87273420 
13.24000550 4.55379060 10.87285420 
12.60927200 3.27728320 10.87278560 
13.39828300 2.09487580 10.87311180 
12.76753810 0.81849520 10.87317000 
14.65940760 15.75791930 10.87346940 
14.02881810 14.48106960 10.87354860 
14.81682300 13.29851440 10.87325380 
14.18618580 12.02147770 10.87306220 
14.97454940 10.83901600 10.87273600 
14.34388540 9.56220060 10.87277040 
15.13153080 8.37969780 10.87280660 
14.50089360 7.10288620 10.87281900 
15.28921030 5.92036580 10.87295160 
14.65842540 4.64348510 10.87312600 
15.44662950 3.46102760 10.87340360 
14.81581600 2.18417690 10.87354960 
15.60493090 1.00184450 10.87383380 
16.07723810 15.84733880 10.87318620 
16.86609080 14.66448400 10.87288960 
16.23533630 13.38804340 10.87282660 
17.02393720 12.20537000 10.87267120 
16.39303020 10.92879020 10.87269320 
17.18079570 9.74605660 10.87263120 
16.55019950 8.46929550 10.87280180 
17.33838650 7.28678610 10.87294200 
16.70782850 6.00995920 10.87321480 
17.49560170 4.82770250 10.87343600 
16.86510660 3.55069120 10.87383180 
17.65383910 2.36837700 10.87389760 
17.02317240 1.09129460 10.87415900 
18.91527940 16.03047750 10.87271700 
18.28447920 14.75412180 10.87258340 
19.07271390 13.57122420 10.87250420 
18.44154740 12.29503920 10.87257100 
18.59959410 9.83565520 10.87253960 
18.75642020 7.37650970 10.87304020 
18.91439440 4.91745660 10.87368880 
19.07155800 2.45833110 10.87402740 
20.96445310 15.93835360 7.48056990 
20.17525610 14.75542360 7.48074010 
20.80625060 13.47899530 7.48073630 
20.01791470 12.29608060 7.48088120 
20.64893820 11.01961990 7.48088460 
19.86025990 9.83692740 7.48097180 
20.49122200 8.56043720 7.48053270 
19.70340240 7.37805130 7.48049980 
20.33405830 6.10136700 7.47994950 
19.54564080 4.91892720 7.47987230 
20.17618350 3.64209130 7.47954660 
19.38794770 2.45995670 7.47935440 
22.38192150 15.84875980 7.48020460 
23.01272230 14.57219600 7.48025040 
22.22460110 13.38950160 7.48057940 
22.85532910 12.11289690 7.48051930 
22.06689070 10.93025980 7.48062610 
22.69741390 9.65342330 7.48065660 
21.91000990 8.47068690 7.48072910 
22.54051710 7.19390580 7.48033140 
21.75215530 6.01158480 7.48021990 
25.22018770 15.66499810 7.47952940 
24.43127110 14.48257930 7.47981260 
25.06174570 13.20569800 7.47995810 
24.27317710 12.02321050 7.48023890 
24.90452240 10.74640940 7.48041160 
24.11636310 9.56391240 7.48055220 
26.63795710 15.57531740 7.47920180 
27.26853470 14.29833320 7.47946790 
26.48058130 13.11604020 7.47952890 
19.23009220 11.11201100 10.87251000 
19.38776220 8.65285590 10.87249000 
19.54461150 6.19397830 10.87316700 
19.70274490 3.73511050 10.87381560 
19.86026840 1.27613550 10.87417320 
20.33324400 16.11938670 10.87288200 
21.12184310 14.93671520 10.87294020 
20.49085470 13.66069510 10.87276660 
21.27982810 12.47778990 10.87271220 
20.64866510 11.20175550 10.87254060 
21.43669940 10.01902480 10.87265300 
20.80575580 8.74281030 10.87271500 
21.59439280 7.56022170 10.87292580 
20.96358620 6.28390790 10.87329580 
21.75145530 5.10144230 10.87335980 
21.12082230 3.82494140 10.87390040 
23.17105130 16.30241400 10.87333120 
22.54022690 15.02636910 10.87326340 
23.32859950 13.84371660 10.87330820 
22.69745950 12.56722260 10.87290760 
23.48637490 11.38448530 10.87289820 
22.85526520 10.10861400 10.87286660 
23.64350320 8.92600540 10.87283720 
23.01229530 7.65018660 10.87289620 
24.58877180 16.39172940 10.87368500 
25.37778520 15.20930200 10.87375640 
24.74706270 13.93289660 10.87366500 
25.53592060 12.75029470 10.87366880 
24.90490390 11.47437570 10.87321480 
27.42701720 16.57610130 10.87417980 
26.79632760 15.29923630 10.87417140 
