written by TR 
1.000000000 
19.230041500 0.000000000 0.000000000 
0.000000000 33.333652500 0.000000000 
0.000000000 0.000000000 18.353351600 
Type1 
488
Cartesian 
0.63026620 32.05731200 7.47919470 
0.47272580 29.59847640 7.47955280 
0.31458130 27.13969800 7.48018310 
0.15770810 24.68103410 7.48087500 
0.00009207 22.22162630 7.48085930 
2.83713180 33.15010070 7.47932250 
2.04899310 31.96767440 7.47918470 
2.67974980 30.69113160 7.47947120 
1.89080800 29.50889780 7.47946790 
2.52146010 28.23222160 7.48000100 
1.73358440 27.05023380 7.48008540 
2.36450100 25.77369690 7.48044400 
1.57582490 24.59107020 7.48065380 
2.20672970 23.31515690 7.48073910 
1.41875240 22.13231090 7.48083020 
2.04995630 20.85649120 7.48067100 
1.26096440 19.67346380 7.48060560 
1.89192300 18.39737700 7.48041060 
1.10324930 17.21465490 7.48048500 
1.73441160 15.93835360 7.48056990 
0.94521460 14.75542360 7.48074010 
1.57620910 13.47899530 7.48073630 
0.78787320 12.29608060 7.48088120 
1.41889670 11.01961990 7.48088460 
0.63021840 9.83692740 7.48097180 
1.26118050 8.56043720 7.48053270 
0.47336090 7.37805130 7.48049980 
1.10401680 6.10136700 7.47994950 
0.31559930 4.91892720 7.47987230 
0.94614200 3.64209130 7.47954660 
0.15790620 2.45995670 7.47935440 
0.78873260 1.18298190 7.47905300 
-0.00014219 0.00065918 7.47897150 
4.25551940 33.06055450 7.47979500 
4.88661380 31.78379440 7.47986030 
4.09759330 30.60120590 7.47972630 
4.72850800 29.32530600 7.48012070 
3.94015380 28.14276890 7.48016600 
4.57132060 26.86690900 7.48042110 
3.78244900 25.68399810 7.48046880 
4.41358810 24.40808300 7.48052030 
3.62530570 23.22546770 7.48051840 
4.25635720 21.94933900 7.48046930 
3.46750570 20.76654060 7.48046020 
4.09850930 19.49032020 7.48005960 
3.31021240 18.30762480 7.48010260 
3.94101360 17.03133390 7.48003720 
3.15188000 15.84875980 7.48020460 
3.78268080 14.57219600 7.48025040 
2.99455960 13.38950160 7.48057940 
3.62528760 12.11289690 7.48051930 
2.83684920 10.93025980 7.48062610 
3.46737240 9.65342330 7.48065660 
2.67996840 8.47068690 7.48072910 
3.31047560 7.19390580 7.48033140 
2.52211380 6.01158480 7.48021990 
3.15274020 4.73472500 7.47986080 
2.36489580 3.55219410 7.47971110 
2.99553540 2.27528530 7.47956040 
2.20649530 1.09314850 7.47926860 
7.09348150 32.87693020 7.48030000 
6.30490070 31.69437790 7.48016260 
6.93598600 30.41840360 7.48049690 
6.14687400 29.23564910 7.48045350 
6.77782440 27.95941740 7.48051260 
5.98962120 26.77667050 7.48061800 
6.62086820 25.50070190 7.48063040 
5.83204030 24.31798750 7.48055750 
6.46310380 23.04190060 7.48018220 
5.67483330 21.85935980 7.48015310 
6.30581860 20.58323670 7.47970010 
5.51693250 19.40069390 7.47970350 
6.14771220 18.12416080 7.47959470 
5.35873510 16.94171520 7.47968290 
5.99014620 15.66499810 7.47952940 
5.20122960 14.48257930 7.47981260 
5.83170420 13.20569800 7.47995810 
5.04313560 12.02321050 7.48023890 
5.67448090 10.74640940 7.48041160 
4.88632160 9.56391240 7.48055220 
5.51664590 8.28706170 7.48055600 
4.72859390 7.10443020 7.48059180 
5.35944180 5.82777070 7.48062520 
4.57154230 4.64532660 7.48029710 
5.20210550 3.36826330 7.48011400 
4.41321180 2.18570970 7.47981310 
5.04398060 0.90914240 7.47989370 
8.51173590 32.78738410 7.48053170 
9.14245700 31.51138880 7.48067620 
8.35339450 30.32869720 7.48067330 
8.98445220 29.05261420 7.48091650 
8.19644070 27.86979680 7.48092890 
8.82717140 26.59360320 7.48078160 
8.03863910 25.41080670 7.48073530 
8.66943080 24.13442040 7.48040250 
7.88172780 22.95175180 7.48028570 
8.51251410 21.67528920 7.47964290 
7.72366340 20.49309920 7.47952460 
8.35439590 19.21653560 7.47919130 
7.56629420 18.03421780 7.47919660 
8.19697190 16.75736810 7.47918850 
7.40791560 15.57531740 7.47920180 
8.03849320 14.29833320 7.47946790 
7.25053980 13.11604020 7.47952890 
7.88102160 11.83908280 7.47992470 
7.09261940 10.65674980 7.48012310 
7.72298720 9.37998200 7.48041820 
6.93556640 8.19751740 7.48055990 
7.56632140 6.92078980 7.48072960 
6.77790410 5.73802620 7.48066670 
7.40856790 4.46136430 7.48070150 
6.62051200 3.27876240 7.48055030 
7.25136380 2.00250960 7.48046970 
6.46231180 0.81982800 7.48017360 
11.34923080 32.60498430 7.48057940 
10.56016450 31.42222030 7.48075010 
11.19167520 30.14577480 7.48073820 
10.40300750 28.96282400 7.48089270 
11.03360460 27.68629840 7.48089220 
10.24512480 26.50366020 7.48097760 
10.87663460 25.22724150 7.48052890 
10.08841510 24.04468540 7.48051980 
10.71888640 22.76805120 7.47995570 
9.93050100 21.58560560 7.47986560 
10.56126790 20.30886650 7.47955280 
9.77295400 19.12676810 7.47936820 
10.40368840 17.84971440 7.47907590 
9.61460210 16.66751290 7.47898060 
10.24528890 15.39051630 7.47918700 
9.45687960 14.20847040 7.47933060 
10.08766560 12.93165600 7.47954900 
9.29897310 11.74931050 7.47969110 
9.92962360 10.47277550 7.48017460 
9.14173220 9.29033190 7.48031330 
9.77259260 8.01389690 7.48086550 
8.98415180 6.83120730 7.48082020 
9.61489580 5.55487210 7.48085170 
8.82681470 4.37177280 7.48079210 
9.45776750 3.09582570 7.48085410 
8.66888430 1.91289840 7.48077820 
9.29993630 0.63691760 7.48065140 
12.76759630 32.51555250 7.48019890 
13.39831540 31.23892400 7.48025660 
12.60938170 30.05630300 7.48058040 
13.24007700 28.77968410 7.48052460 
12.45252900 27.59691620 7.48063380 
13.08301070 26.32005880 7.48066520 
12.29473400 25.13753320 7.48073580 
12.92510140 23.86067780 7.48034770 
12.13770390 22.67831040 7.48022800 
12.76836300 21.40137860 7.47988890 
11.97976600 20.21899800 7.47972010 
12.61038400 18.94207580 7.47956370 
11.82200820 17.75995640 7.47927910 
12.45287040 16.48307230 7.47932150 
11.66372210 15.30073170 7.47917890 
12.29452710 14.02395150 7.47946500 
11.50610350 12.84181980 7.47946170 
12.13695050 11.56545450 7.47999380 
11.34824940 10.38277340 7.48006350 
11.97918320 9.10677050 7.48043440 
11.19105150 7.92408380 7.48064570 
11.82215310 6.64819480 7.48071010 
11.03337670 5.46534020 7.48082070 
11.66452410 4.18900010 7.48066670 
10.87601960 3.00663850 7.48060990 
11.50728710 1.73037320 7.48040340 
10.71831990 0.54745600 7.48047930 
15.60494810 32.33190920 7.47953560 
14.81586080 31.14934920 7.47981980 
15.44672490 29.87246320 7.47996570 
14.65849310 28.69001200 7.48024320 
15.28927040 27.41310500 7.48043110 
14.50095560 26.23059460 7.48055560 
15.13157560 24.95380980 7.48056410 
14.34391790 23.77128990 7.48059470 
14.97458660 22.49448970 7.48063330 
14.18620010 21.31201750 7.48030520 
14.81679730 20.03498270 7.48012590 
14.02877240 18.85244940 7.47982080 
14.65935330 17.57572560 7.47989560 
13.87034240 16.39314840 7.47978790 
14.50114440 15.11698910 7.47986130 
13.71301370 13.93427760 7.47972060 
14.34362030 12.65833280 7.48009110 
13.55477910 11.47580050 7.48014260 
14.18585300 10.19948390 7.48040440 
13.39794920 9.01716040 7.48046210 
14.02897070 7.74096970 7.48052220 
13.24007990 6.55828670 7.48051120 
13.87112340 5.28252360 7.48046310 
13.08312420 4.09954550 7.48045970 
13.71399690 2.82366640 7.48005250 
12.92482660 1.64083450 7.48007680 
13.55572320 0.36454850 7.48002910 
17.02322580 32.24224470 7.47921090 
17.65393640 30.96516420 7.47947220 
16.86516580 29.78280450 7.47953800 
17.49568180 28.50583460 7.47993380 
16.70785910 27.32347870 7.48013450 
17.33840750 26.04674150 7.48042920 
16.55019190 24.86424060 7.48056800 
17.18077090 23.58758170 7.48073870 
16.39299970 22.40464780 7.48065810 
17.02392200 21.12838750 7.48071050 
16.23532110 19.94562340 7.48056700 
16.86606040 18.66947560 7.48048640 
16.07719420 17.48659520 7.48018220 
16.70869640 16.21002010 7.48029190 
15.91971680 15.02784160 7.48015690 
16.55043220 13.75139330 7.48049210 
15.76164440 12.56853770 7.48045020 
16.39312750 11.29260640 7.48050640 
15.60454280 10.10976030 7.48060850 
16.23546220 8.83404350 7.48062090 
15.44688510 7.65112930 7.48055130 
16.07805820 6.37522600 7.48017650 
15.28975680 5.19275900 7.48014830 
15.92052180 3.91651200 7.47969060 
15.13160710 2.73393320 7.47969580 
15.76254370 1.45738250 7.47959520 
14.97399140 0.27493520 7.47967670 
19.07157900 30.87527660 7.47934150 
18.91440780 28.41600990 7.47969960 
18.75642970 25.95717240 7.48033810 
18.59959030 23.49828910 7.48083070 
18.44156460 21.03920360 7.48080260 
19.07282830 19.76279450 7.48087070 
18.28451730 18.57988170 7.48078210 
18.91531000 17.30383110 7.48065190 
18.12629320 16.12079620 7.48053740 
18.75719070 14.84499460 7.48067570 
17.96882440 13.66199110 7.48067190 
18.59988600 12.38589760 7.48090840 
17.81105040 11.20310880 7.48092130 
18.44193270 9.92688860 7.48077540 
17.65396310 8.74417880 7.48072870 
18.28495030 7.46776820 7.48039530 
17.49640850 6.28511720 7.48027900 
18.12724500 5.00856970 7.47963480 
17.33890730 3.82647610 7.47952610 
17.96965980 2.54979420 7.47918370 
17.18075750 1.36743610 7.47919130 
17.81160930 0.09045810 7.47918230 
0.00005070 11.11201100 10.87251000 
0.15772070 8.65285590 10.87249000 
0.31457000 6.19397830 10.87316700 
0.47270340 3.73511050 10.87381560 
0.63022690 1.27613550 10.87417320 
-0.00012197 -0.00097269 10.87437920 
0.78881680 32.15047840 10.87431440 
0.15803910 30.87349900 10.87402260 
0.94621080 29.69137390 10.87382140 
0.31566460 28.41449360 10.87349420 
1.10411930 27.23205950 10.87343600 
0.47351580 25.95550920 10.87286960 
1.26132640 24.77304650 10.87284180 
0.63029810 23.49677470 10.87239840 
1.41888300 22.31409260 10.87248420 
0.78792040 21.03784370 10.87250040 
1.57630590 19.85508360 10.87264160 
0.94516000 18.57833860 10.87262820 
1.73442960 17.39548880 10.87278560 
1.10320250 16.11938670 10.87288200 
1.89180160 14.93671520 10.87294020 
1.26081320 13.66069510 10.87276660 
2.04978660 12.47778990 10.87271220 
1.41862360 11.20175550 10.87254060 
2.20665790 10.01902480 10.87265300 
1.57571430 8.74281030 10.87271500 
2.36435130 7.56022170 10.87292580 
1.73354470 6.28390790 10.87329580 
2.52141380 5.10144230 10.87335980 
1.89078080 3.82494140 10.87390040 
2.67972520 2.64279220 10.87389660 
2.04900980 1.36594930 10.87418380 
2.83720400 0.18346100 10.87405300 
2.20663100 32.24031450 10.87409980 
2.99558880 31.05815120 10.87380900 
2.36498360 29.78122140 10.87365720 
3.15280410 28.59870530 10.87350860 
2.52218130 27.32184410 10.87314800 
3.31057070 26.13951490 10.87303260 
2.68007260 24.86272440 10.87265780 
3.46740610 23.67998890 10.87270460 
2.83688430 22.40317730 10.87274080 
3.62535030 21.22053150 10.87286000 
2.99468060 19.94407840 10.87278760 
3.78277590 18.76132010 10.87311840 
3.15194870 17.48496250 10.87316240 
3.94100980 16.30241400 10.87333120 
3.31018540 15.02636910 10.87326340 
4.09855800 13.84371660 10.87330820 
3.46741800 12.56722260 10.87290760 
4.25633340 11.38448530 10.87289820 
3.62522370 10.10861400 10.87286660 
4.41346170 8.92600540 10.87283720 
3.78225380 7.65018660 10.87289620 
4.57110030 6.46736910 10.87294780 
3.93999420 5.19136290 10.87321480 
4.72840360 4.00888200 10.87326920 
4.09745310 2.73262260 10.87364100 
4.88645600 1.54995470 10.87350180 
4.25556330 0.27337020 10.87357040 
5.04418610 32.42473990 10.87347320 
4.41334250 31.14784620 10.87355520 
5.20218900 29.96516420 10.87326440 
4.57161720 28.68810850 10.87307180 
5.35950280 27.50568010 10.87274360 
4.72865540 26.22900010 10.87277600 
5.51669500 25.04638480 10.87281320 
4.88637980 23.76951410 10.87282380 
5.67451380 22.58703040 10.87296020 
5.04316900 21.31022840 10.87313560 
5.83172750 20.12775610 10.87341120 
5.20129630 18.85086820 10.87355340 
5.99015000 17.66847610 10.87383460 
5.35873030 16.39172940 10.87368500 
6.14774370 15.20930200 10.87375640 
5.51702120 13.93289660 10.87366500 
6.30587910 12.75029470 10.87366880 
5.67486240 11.47437570 10.87321480 
6.46306370 10.29186060 10.87318620 
5.83197070 9.01602460 10.87280940 
6.62087970 7.83336880 10.87273980 
5.98948240 6.55715370 10.87276840 
6.77775960 5.37440490 10.87286000 
6.14676670 4.09845920 10.87290680 
6.93578100 2.91560400 10.87288760 
6.30469090 1.63950680 10.87320420 
7.09322550 0.45677800 10.87306320 
6.46244100 32.51416020 10.87319560 
7.25153210 31.33127790 10.87290000 
6.62057590 30.05476570 10.87283520 
7.40862800 28.87211620 10.87267680 
6.77800800 27.59538650 10.87269020 
7.56637480 26.41268540 10.87263780 
6.93561940 25.13592720 10.87281040 
7.72302490 23.95347980 10.87295060 
7.09267330 22.67661860 10.87322440 
7.88103820 21.49437910 10.87344560 
7.25053220 20.21738050 10.87384900 
8.03850270 19.03512950 10.87390040 
7.40792280 17.75812530 10.87416560 
8.19697570 16.57610130 10.87417980 
7.56628610 15.29923630 10.87417140 
8.35439400 14.11691670 10.87419520 
7.72370200 12.84034640 10.87383460 
8.51248840 11.65820410 10.87372400 
7.88168960 10.38170630 10.87308220 
8.66942690 9.19907480 10.87296580 
8.03869250 7.92280100 10.87263200 
8.82719900 6.73994450 10.87258720 
8.19644360 5.46395450 10.87244040 
8.98439420 4.28115230 10.87245080 
8.35333730 3.00521710 10.87269500 
9.14235690 1.82238840 10.87269320 
8.51141930 0.54598450 10.87283800 
9.29982950 32.69692610 10.87271700 
8.66891580 31.42082030 10.87259100 
9.45790670 30.23800280 10.87251480 
8.82693670 28.96165280 10.87257860 
9.61502460 27.77874000 10.87251660 
8.98427020 26.50229080 10.87254920 
9.77267550 25.31958960 10.87250240 
9.14178560 24.04313470 10.87305560 
9.92965140 22.86070060 10.87317660 
9.29901700 21.58413890 10.87370020 
10.08767610 20.40182110 10.87381940 
9.45689970 19.12499050 10.87403400 
10.24529650 17.94295500 10.87418080 
9.61460020 16.66594320 10.87438780 
10.40370560 15.48370940 10.87430680 
9.77295500 14.20668700 10.87400720 
10.56124020 13.02460960 10.87381560 
9.93048380 11.74782660 10.87350180 
10.71885110 10.56540970 10.87342740 
10.08833790 9.28871730 10.87286000 
10.87659180 8.10624600 10.87283040 
10.24511820 6.82982300 10.87238980 
11.03354640 5.64719150 10.87247660 
10.40296840 4.37062500 10.87247180 
11.19166660 3.18778900 10.87261500 
10.56007010 1.91167000 10.87261880 
11.34910010 0.72887330 10.87278760 
10.71818070 32.78601460 10.87288860 
11.50720030 31.60337640 10.87294780 
10.87613120 30.32741740 10.87275980 
11.66458900 29.14469910 10.87270260 
11.03349590 27.86854740 10.87254820 
11.82226280 26.68576430 10.87265400 
11.19113920 25.40957070 10.87271980 
11.97927000 24.22698400 10.87293440 
11.34834670 22.95064540 10.87330540 
12.13703540 21.76817710 10.87337600 
11.50618460 20.49168210 10.87390800 
12.29458330 19.30954740 10.87390340 
11.66374590 18.03274350 10.87419220 
12.45288370 16.85042200 10.87406360 
11.82201480 15.57350730 10.87409120 
12.61036490 14.39142610 10.87380600 
11.97976300 13.11447240 10.87364960 
12.76834870 11.93209840 10.87350000 
12.13766670 10.65516000 10.87313940 
12.92506040 9.47279360 10.87302680 
12.29468540 8.19594570 10.87263020 
13.08295820 7.01339530 10.87269120 
12.45246600 5.73656320 10.87273420 
13.24000550 4.55379060 10.87285420 
12.60927200 3.27728320 10.87278560 
13.39828300 2.09487580 10.87311180 
12.76753810 0.81849520 10.87317000 
13.55584720 32.96904000 10.87334440 
12.92483040 31.69315340 10.87327200 
13.71393590 30.51059340 10.87329960 
13.08308320 29.23459820 10.87290000 
13.87116440 28.05172920 10.87290760 
13.24009230 26.77565390 10.87287340 
14.02892780 25.59304050 10.87284660 
13.39798640 24.31705480 10.87290580 
14.18589690 23.13424300 10.87293820 
13.55486680 21.85813900 10.87322340 
14.34370040 20.67563440 10.87327780 
13.71305950 19.39939690 10.87364860 
14.50120550 18.21677970 10.87350860 
13.87040340 16.94028480 10.87358200 
14.65940760 15.75791930 10.87346940 
14.02881810 14.48106960 10.87354860 
14.81682300 13.29851440 10.87325380 
14.18618580 12.02147770 10.87306220 
14.97454940 10.83901600 10.87273600 
14.34388540 9.56220060 10.87277040 
15.13153080 8.37969780 10.87280660 
14.50089360 7.10288620 10.87281900 
15.28921030 5.92036580 10.87295160 
14.65842540 4.64348510 10.87312600 
15.44662950 3.46102760 10.87340360 
14.81581600 2.18417690 10.87354960 
15.60493090 1.00184450 10.87383380 
14.97422220 33.05903240 10.87369360 
15.76275830 31.87672820 10.87377360 
15.13160230 30.59992980 10.87369060 
15.92060480 29.41737750 10.87368200 
15.28978440 28.14137270 10.87322040 
16.07799720 26.95890440 10.87319280 
15.44679930 25.68309980 10.87282000 
16.23536870 24.50031660 10.87272560 
15.60445120 23.22444150 10.87277420 
16.39312750 22.04165270 10.87286200 
15.76160910 20.76548010 10.87290960 
16.55035210 19.58263970 10.87289440 
15.91972640 18.30637360 10.87321200 
16.70870590 17.12378690 10.87307180 
16.07723810 15.84733880 10.87318620 
16.86609080 14.66448400 10.87288960 
16.23533630 13.38804340 10.87282660 
17.02393720 12.20537000 10.87267120 
16.39303020 10.92879020 10.87269320 
17.18079570 9.74605660 10.87263120 
16.55019950 8.46929550 10.87280180 
17.33838650 7.28678610 10.87294200 
16.70782850 6.00995920 10.87321480 
17.49560170 4.82770250 10.87343600 
16.86510660 3.55069120 10.87383180 
17.65383910 2.36837700 10.87389760 
17.02317240 1.09129460 10.87415900 
17.81175810 33.24308780 10.87418840 
17.18096160 31.96625720 10.87417600 
17.96983920 30.78379250 10.87420280 
17.33903500 29.50731280 10.87384420 
18.12730600 28.32526020 10.87372980 
17.49645240 27.04895590 10.87308700 
18.28507230 25.86634840 10.87297340 
17.65393640 24.58968740 10.87263880 
18.44194800 23.40705870 10.87260260 
17.81099890 22.13106160 10.87245280 
18.59979060 20.94824980 10.87245760 
17.96870420 19.67230040 10.87269600 
18.75707820 18.48948480 10.87269020 
18.12619210 17.21339990 10.87286580 
18.91527940 16.03047750 10.87271700 
18.28447920 14.75412180 10.87258340 
19.07271390 13.57122420 10.87250420 
18.44154740 12.29503920 10.87257100 
18.59959410 9.83565520 10.87253960 
18.75642020 7.37650970 10.87304020 
18.91439440 4.91745660 10.87368880 
19.07155800 2.45833110 10.87402740 
