POSCAR file written by OVITO
1
23.4906597 -4.2689009e-05 -3.8534392e-06
-7.4002862e-05 40.7039528 6.3909507e-05
-3.0226696e-06 2.8910558e-05 18.3551617
C 
728 
Cartesian
0.645399 39.4358711 7.4800744
0.5160145 36.9754868 7.4803219
0.3865289 34.515625 7.4807244
0.2576162 32.0558052 7.4810362
0.1289328 29.5956021 7.4815102
-6.5512061e-05 27.135891 7.4816399
2.8395658 40.5539551 7.4801293
2.0651512 39.3625412 7.4799843
2.7104237 38.094265 7.4802256
1.9356878 36.9025688 7.4802633
2.5809701 35.6338272 7.4805455
1.8062487 34.4422035 7.4807611
2.4517656 33.1740418 7.4812393
1.6774963 31.9821968 7.4813032
2.3230796 30.7137795 7.481391
1.5486334 29.5221424 7.4815574
2.1940887 28.2538643 7.4816022
1.4196664 27.0617867 7.4815946
2.0651596 25.7940674 7.481669
1.2906219 24.6019745 7.4816451
1.936151 23.333559 7.4813848
1.1613644 22.1414986 7.4815288
1.8067036 20.8735752 7.4812117
1.0319252 19.6813851 7.4814182
1.6780432 18.4136524 7.4812598
0.9033982 17.2215023 7.4813171
1.5488351 15.9532462 7.4815798
0.7742759 14.7611733 7.4816108
1.4195915 13.4934626 7.4816494
0.64512 12.30126 7.4815607
1.2907893 11.033062 7.4816141
0.5165795 9.8413458 7.4813118
1.1620055 8.5729141 7.481113
0.3878178 7.38099 7.4810119
1.0330285 6.1126151 7.4805694
0.2586109 4.9210658 7.4805255
0.9040752 3.6521325 7.4802037
0.1294872 2.4606662 7.4801226
0.774745 1.1918211 7.4800105
2.7848768e-04 6.0854187e-04 7.4800225
4.2591958 40.4798203 7.4803372
4.904441 39.2115708 7.4804502
4.129921 38.0198593 7.4804697
4.7753053 36.7517586 7.4805751
4.0006385 35.5600662 7.4808684
4.6462393 34.291729 7.4809809
3.871642 33.0998611 7.481062
4.5171895 31.8322544 7.4812846
3.7426839 30.640194 7.4814096
4.3881617 29.3723965 7.4815021
3.6138089 28.1804009 7.4813648
4.2595 26.9125252 7.4814215
3.4848595 25.7204247 7.4813972
4.130312 24.4527416 7.4812303
3.3555539 23.2607594 7.481163
4.0010619 21.992241 7.4811206
3.2265103 20.8003559 7.4811654
3.8720732 19.5321503 7.4809013
3.0975647 18.3401966 7.481153
3.7428785 17.0717106 7.4812126
2.9682846 15.8797846 7.4812665
3.6137409 14.6111126 7.4814487
2.839386 13.4193316 7.4816871
3.4847813 12.1511612 7.4814368
2.7105763 10.9591752 7.481431
3.3558402 9.6906452 7.4813524
2.5815714 8.4986296 7.4811559
3.2273426 7.2304478 7.4808111
2.4530182 6.0387077 7.4808445
3.0984032 4.7704163 7.4805818
2.3238802 3.5788174 7.4803071
2.9691052 2.3099747 7.480124
2.1943302 1.1184105 7.4800697
7.0990691 40.3301087 7.4809227
6.3240051 39.1383133 7.4807921
6.9695954 37.8700982 7.4809957
6.1949844 36.6781922 7.4810353
6.8405882 35.4102707 7.4811783
6.0658407 34.218441 7.4813204
6.7115307 32.9499208 7.4814163
5.9370128 31.7580605 7.481472
6.5825463 30.4903279 7.4814806
5.8079119 29.2982693 7.481442
6.4535775 28.0301781 7.4812541
5.6789894 26.8383236 7.481329
6.3245793 25.570179 7.4808321
5.550014 24.3783989 7.4810462
6.195601 23.1105022 7.4806361
5.4207931 21.9186498 7.4807682
6.0661268 20.6503334 7.4806333
5.2913089 19.4583874 7.4806934
5.9368086 18.1901856 7.4805789
5.1624427 16.9983426 7.4808636
5.8080039 15.7301836 7.4810133
5.0335627 14.538271 7.4810457
5.6787534 13.2695551 7.4814701
4.904451 12.0777035 7.4813257
5.5498052 10.8095637 7.4815073
4.7756129 9.6177149 7.4815827
5.4210558 8.3487511 7.4813476
4.6468425 7.1569266 7.4811716
5.2920113 5.8883548 7.4810372
4.5181036 4.696795 7.4808007
5.1634412 3.4282093 7.4807349
4.3888464 2.2364566 7.4805932
5.0343385 0.967596 7.4805098
8.5185986 40.2564583 7.4812827
9.1640959 38.9881402 7.48134
8.3892059 37.7960663 7.4812126
9.0346642 36.5283242 7.4814368
8.2601862 35.3362045 7.4813819
8.9058008 34.0685959 7.4814811
8.1313028 32.8764802 7.4813576
8.7768622 31.6084538 7.4814081
8.0023394 30.4164772 7.4813972
8.64779 29.1490078 7.4812098
7.8732996 27.9570522 7.4811101
8.5188856 26.6887455 7.480949
7.7443023 25.4966889 7.4808874
8.3897009 24.2286682 7.480361
7.6151567 23.0370369 7.4804244
8.2605095 21.768673 7.4800992
7.4857621 20.5771542 7.4803219
8.1311321 19.3081913 7.4803877
7.3564344 18.1163979 7.4805751
8.0020838 16.8477346 7.4805136
7.2275777 15.6561404 7.4807458
7.8727866 14.3876763 7.4809013
7.0984855 13.1957455 7.4811139
7.7438522 11.927168 7.4812203
6.9696846 10.7353945 7.4815111
7.6149345 9.4672852 7.4815216
6.840787 8.275486 7.4813471
7.4862199 7.0067663 7.4812455
6.7118211 5.8147612 7.4810782
7.3572188 4.5466738 7.4812284
6.583231 3.3547442 7.4808078
7.2286568 2.0867124 7.48101
6.4538036 0.8947596 7.4807511
11.3584204 40.1074638 7.4815212
10.5834799 38.9153634 7.4815169
11.2292252 37.6468811 7.481688
10.4543047 36.4546967 7.4816852
11.0998335 35.1866455 7.4817949
10.3254061 33.9946136 7.4816137
10.9709044 32.7265091 7.4817686
10.1964903 31.5344677 7.4815727
10.8419552 30.2661247 7.4814558
10.0676136 29.0743427 7.4813476
10.7132406 27.8065052 7.4807921
9.9387264 26.6147576 7.4808069
10.5840121 25.3462086 7.4803572
9.8092366 24.1546154 7.4802842
10.4544916 22.8863832 7.4798517
9.6801129 21.6947594 7.4799557
10.3254948 20.4265442 7.4798718
9.551034 19.235014 7.4799381
10.1961508 17.9661656 7.4801107
9.4214754 16.7746201 7.4802265
10.0668783 15.5062447 7.4806061
9.2925997 14.3145409 7.4807787
9.9379644 13.045866 7.4810133
9.1637096 11.854252 7.4811425
9.8090277 10.5856667 7.4813319
9.0346966 9.3937855 7.4814325
9.6800823 8.1255617 7.4816027
8.9059154 6.9335494 7.4816671
9.5516205 5.6647387 7.481484
8.7770071 4.472785 7.4812651
9.4223433 3.2045856 7.4813099
8.6480608 2.0126004 7.481144
9.2935982 0.7446242 7.481339
12.7777424 40.0333595 7.4814482
13.4234085 38.7656365 7.4812885
12.6488219 37.5734749 7.4813462
13.2941971 36.3051987 7.4816103
12.5195008 35.1131134 7.481638
13.1648283 33.8451806 7.4816551
12.3905258 32.6531334 7.4815893
13.0361462 31.3851833 7.4816475
12.261919 30.1931114 7.4813433
12.907239 28.924738 7.4811445
12.1329928 27.7329006 7.4810486
12.7782507 26.4646759 7.4806004
12.0037594 25.273077 7.4805541
12.6489744 24.0041065 7.4802428
11.874323 22.8125725 7.4801464
12.5195503 21.5438271 7.4800377
11.7451382 20.3525829 7.4800339
12.3903809 19.0839062 7.4800272
11.6155825 17.892477 7.4800763
12.2613735 16.6234169 7.4802876
11.4866734 15.4320565 7.4804397
12.1319542 14.1638355 7.4806905
11.3576613 12.9718944 7.480897
12.0029497 11.7036019 7.4810009
11.2286577 10.5117913 7.4812951
11.874281 9.2436781 7.4814759
11.1000004 8.0516176 7.4814558
11.7454453 6.7838002 7.481606
10.9709912 5.5917521 7.4816623
11.6164522 4.3234458 7.4816647
10.8419362 3.1313608 7.4813867
11.4876652 1.8635278 7.4815078
10.7131205 0.6715385 7.4814463
15.617589 39.8840676 7.4809299
14.84297 38.6921654 7.481195
15.4882136 37.4237213 7.4812427
14.7136231 36.2317848 7.4812942
15.3590851 34.9631272 7.4814477
14.5846682 33.7713509 7.4817114
15.2300673 32.502964 7.4814711
14.4559832 31.3110199 7.481462
15.1011725 30.0424194 7.4813829
14.3270073 28.8507748 7.4811969
14.9723654 27.5823231 7.4808402
14.198061 26.390501 7.4808731
14.8432198 25.122366 7.4806032
14.0688028 23.9307842 7.4803353
14.7139454 22.6619568 7.4801665
13.9391918 21.4703579 7.4801054
14.5844918 20.2019787 7.4800964
13.8103838 19.0105362 7.4799524
14.4556866 17.7422199 7.4801903
13.6809597 16.5505409 7.480228
14.3263817 15.2817507 7.4805107
13.5516892 14.090148 7.4807258
14.1972389 12.8220883 7.4812117
13.4228077 11.6301546 7.481268
14.0684261 10.361826 7.4813566
13.2939167 9.1702213 7.4815345
13.9395018 7.901844 7.4815693
13.1650219 6.7098398 7.4815603
13.8110485 5.4419995 7.4816203
13.0363083 4.2498889 7.4816122
13.6819401 2.9814962 7.4813538
12.9071474 1.789419 7.4814835
13.5525255 0.5216279 7.4811654
17.0370216 39.8103104 7.4807301
17.6822281 38.5422058 7.4806171
16.9078008 37.3503494 7.4808946
17.5533352 36.0821991 7.4810448
16.7789192 34.890297 7.4810725
17.4240685 33.6215477 7.4814878
16.649765 32.4297447 7.4813442
17.2950401 31.1614475 7.4815493
16.5210018 29.9694692 7.4816113
17.1662655 28.7007199 7.4813876
16.3921471 27.5089798 7.4811936
17.0373211 26.2401981 7.4810667
16.2629318 25.0485725 7.4808283
16.9082584 23.7801152 7.4807644
16.1337166 22.5884457 7.4806309
16.7791672 21.3195152 7.4805441
16.0042171 20.1278668 7.4803043
16.6494332 18.8596192 7.4804049
15.874941 17.6678372 7.4804402
16.5206528 16.3996582 7.4805408
15.7460299 15.2080193 7.4808336
16.3916645 13.939682 7.4809456
15.6170903 12.7478056 7.4810233
16.2626152 11.4803019 7.4812508
15.4880486 10.2883129 7.4813748
16.1336021 9.0204601 7.4814701
15.3591566 7.8282213 7.4813195
16.0049419 6.5606027 7.4813838
15.2304278 5.3686323 7.4813624
15.8758946 4.1007767 7.4811979
15.1013975 2.9086736 7.4811373
15.7470179 1.6402085 7.4810753
14.9720174 0.4483694 7.4811435
19.87677 39.6600914 7.4804063
19.1020298 38.4684105 7.4806071
19.7473393 37.1998138 7.4805446
18.9730302 36.0080986 7.4807606
19.6181546 34.7395745 7.4809299
18.8438492 33.5478325 7.4811397
19.4891091 32.279068 7.4812517
18.7150002 31.0874195 7.4815359
19.3601933 29.8192253 7.4815536
18.5861397 28.6271611 7.4813738
19.2312641 27.3587093 7.4812713
18.4569073 26.1669197 7.4811301
19.1024246 24.8985902 7.4812603
18.3281098 23.7066612 7.4808393
18.9734764 22.4385796 7.4810272
18.1986618 21.2466889 7.480784
18.8440534 19.9781686 7.4808893
18.0691223 18.7863541 7.4807468
18.7147389 17.5180531 7.4809566
17.940075 16.3261185 7.4809995
18.5860157 15.0582686 7.481144
17.8112278 13.8663236 7.4812861
18.4570122 12.5979624 7.4813786
17.6824551 11.4059963 7.4814377
18.3280029 10.1383467 7.4814482
17.5533619 8.9465028 7.4814081
18.1990395 7.6781435 7.4812198
17.4243031 6.4862004 7.4812799
18.0701332 5.2183242 7.4807992
17.2957668 4.0264826 7.4810076
17.9412976 2.7584818 7.4806166
17.1665764 1.5665744 7.4807415
17.8119583 0.2982871 7.4805985
21.296505 39.5869713 7.4799657
21.9415588 38.3181267 7.4801312
21.1669159 37.1265183 7.4802575
21.8120919 35.8581124 7.4806338
21.0380535 34.6664086 7.4808078
21.6832848 33.3980293 7.4810486
20.908991 32.2062111 7.4811793
21.554266 30.937418 7.4813576
20.7799816 29.7456875 7.4814468
21.4252987 28.4776001 7.4816304
20.6511364 27.2854004 7.4816985
21.2965679 26.0168133 7.4815374
20.5219898 24.8247528 7.4812956
21.1673431 23.5565834 7.4813395
20.3928909 22.3646259 7.4811712
21.0384998 21.0964699 7.4813314
20.2635174 19.9044876 7.4812427
20.9091722 18.6361218 7.4813133
20.1344395 17.4440918 7.4811783
20.7800694 16.176487 7.4813881
20.0053883 14.9842968 7.4813462
20.6511975 13.7164173 7.4814587
19.87673 12.5244589 7.4813233
20.5223103 11.2566652 7.4813743
19.7477989 10.0645189 7.4813633
20.3932686 8.7969332 7.4811626
19.6187592 7.6051355 7.4810815
20.2642594 6.3365936 7.4809156
19.489729 5.1448097 7.480844
20.1353874 3.8766202 7.4803286
19.3610382 2.6849263 7.4804158
20.0062962 1.416584 7.4800763
19.2314377 0.2251165 7.4802752
23.3612709 38.2444458 7.4801121
23.2319393 35.7839661 7.4804697
23.1030178 33.3237496 7.4809227
22.9739628 30.8636208 7.4813333
22.845295 28.4034958 7.4814949
22.7161293 25.9437562 7.4816923
23.3616161 24.6754551 7.4816747
22.586752 23.4833966 7.4814167
23.2324276 22.2154503 7.4815502
22.4580822 21.0234509 7.4814749
23.1034374 19.7553711 7.4814663
22.3286858 18.5633717 7.481494
22.9744454 17.2949257 7.4816647
22.199461 16.102766 7.4816427
22.8452302 14.8348913 7.4817596
22.0706215 13.6427241 7.4815874
22.7162133 12.3744192 7.4817338
21.9418508 11.182476 7.4815393
22.5873375 9.9143314 7.4814215
21.8130913 8.7223683 7.4813066
22.4588166 7.4543996 7.4807568
21.6841698 6.2626815 7.480784
22.3297653 4.9941216 7.4803453
21.5548611 3.8026111 7.4802513
22.2001076 2.5343344 7.4798193
21.4260292 1.3427719 7.4799066
22.071352 0.0745052 7.4798379
5.2505779e-05 13.5681296 10.8735848
0.1288731 11.108202 10.8737136
0.2576116 8.6482849 10.874178
0.3866371 6.1880808 10.8745012
0.5160744 3.7286053 10.8749152
0.6454177 1.2680986 10.8751546
2.2395599e-04 -4.4010797e-04 10.8751384
0.7747337 39.5121308 10.875209
0.1295115 38.2434273 10.875103
0.9040084 37.0519447 10.875023
0.2585557 35.7830353 10.8747006
1.0329707 34.5913849 10.8746568
0.3877995 33.3229637 10.8742142
1.1618637 32.1310501 10.8741016
0.5164929 30.8628826 10.8739138
1.2908015 29.6710053 10.8736106
0.6451447 28.402544 10.873664
1.4196575 27.2105503 10.8735762
0.774307 25.9428216 10.8736154
1.5488357 24.7505741 10.8736448
0.9033858 23.4825363 10.87391
1.6779548 22.2904472 10.8739748
1.0317965 21.022541 10.8738222
1.8067687 19.8302574 10.874013
1.1614093 18.5625134 10.8736992
1.9361556 17.3705368 10.8738404
1.2906217 16.1021137 10.87358
2.0652592 14.9099446 10.8735562
1.4197464 13.6420326 10.8736296
2.1940022 12.4500475 10.8736182
1.5485347 11.1819649 10.8736678
2.3230863 9.9901476 10.8738452
1.6775418 8.721633 10.8739338
2.4518788 7.5298462 10.8739862
1.8064281 6.2619114 10.8744632
2.5810681 5.0701461 10.8746786
1.9357368 3.801606 10.874962
2.7104254 2.6096962 10.874999
2.0651131 1.3415277 10.8752414
2.8396406 0.1501539 10.8750944
2.1943564 39.5856819 10.8751554
2.9691038 38.3939972 10.8751012
2.3238106 37.1253586 10.874918
3.0982933 35.9335518 10.8746424
2.4529264 34.6653939 10.8743802
3.2272592 33.4736481 10.8744136
2.5814715 32.2053413 10.8740598
3.3557954 31.0135212 10.8738708
2.710584 29.7448063 10.8737936
3.4848778 28.5529347 10.873788
2.8394354 27.2845612 10.873539
3.6137328 26.0926876 10.873786
2.9682286 24.8241482 10.8739614
3.7427409 23.6323643 10.8740196
3.0974138 22.3637524 10.8740722
3.8721306 21.1716518 10.874323
3.2265906 19.9036598 10.8740578
4.0010538 18.7118302 10.8741036
3.3555532 17.4433403 10.8740626
4.1303663 16.2512474 10.8739948
3.4849382 14.983409 10.873827
4.2594023 13.7913924 10.873806
3.6137512 12.5237017 10.87387
4.3881965 11.3316212 10.8737222
3.742738 10.0636292 10.8738156
4.5172849 8.8717156 10.8739386
3.871779 7.6041508 10.8741628
4.6463428 6.4120584 10.8742428
4.0007377 5.1439953 10.8743572
4.7753134 3.9524484 10.87465
4.1298566 2.6840675 10.8747454
4.904533 1.4923569 10.8747722
4.2593331 0.2240877 10.8748798
5.0343146 39.7362023 10.874714
4.3888316 38.467556 10.8746262
5.1633325 37.2760048 10.8745022
4.5179396 36.0071564 10.874425
5.2919912 34.8155709 10.8741866
4.64677 33.5470658 10.8740502
5.4210134 32.3553238 10.8738766
4.7755633 31.0863438 10.873641
5.5498538 29.894476 10.8737308
4.9045238 28.6259766 10.8738996
5.6786804 27.4341316 10.8737546
5.0335164 26.1658821 10.8741732
5.8079114 24.9737798 10.8742066
5.1622887 23.70541 10.8743754
5.9368774 22.5135098 10.8746358
5.2913985 21.2456284 10.8745232
6.0661187 20.0537243 10.87459
5.4207921 18.7854443 10.8744574
6.1956034 17.5934754 10.8745966
5.5500613 16.3255444 10.8741798
6.3244848 15.1337528 10.8743944
5.6789618 13.8658792 10.87391
6.4536524 12.6738577 10.87397
5.8079973 11.4055157 10.8737804
6.5826745 10.2136669 10.8737422
5.9371058 8.9459144 10.8737526
6.7115913 7.7538824 10.8738166
6.065907 6.48557 10.8738966
6.8405628 5.2938194 10.8740368
6.1949306 4.025733 10.8741884
6.9697076 2.8337381 10.8742324
6.3241997 1.5655948 10.874425
7.0991812 0.3737322 10.874299
6.4537359 39.8092575 10.8744726
7.2285109 38.6173859 10.8742142
6.583057 37.3491745 10.8744154
7.3572216 36.1571388 10.873994
6.7117901 34.8892288 10.8741332
7.4861636 33.6973076 10.8739778
6.8407378 32.4285813 10.8738872
7.6149755 31.2367115 10.8737002
6.969719 29.9683152 10.873702
7.7436614 28.776598 10.8740034
7.0983906 27.5082188 10.8741208
7.8727346 26.3164654 10.874323
7.22753 25.0475311 10.874487
8.0021591 23.8559456 10.8747102
7.3565507 22.587616 10.8746462
8.1311722 21.3957691 10.8748284
7.4857588 20.1270046 10.8749
8.260459 18.9352742 10.875123
7.6151223 17.6670494 10.8747998
8.3896732 16.4754086 10.8748628
7.7442613 15.2072706 10.8743362
8.5188999 14.0154028 10.8742752
7.8733706 12.7469139 10.874114
8.6479483 11.555069 10.874014
8.0024529 10.2873879 10.8738252
8.7769213 9.0953226 10.8738136
8.1313057 7.8274312 10.873867
8.9057284 6.6354637 10.8737412
8.2601004 5.3677206 10.8738404
9.0348034 4.1754961 10.8737984
8.3893519 2.9078458 10.8740092
9.1641569 1.7157781 10.8738748
8.5186816 0.4474965 10.8739406
9.293479 39.9595948 10.873908
8.6478873 38.6913262 10.8740808
9.422328 37.4991951 10.8739128
8.7770214 36.2312241 10.8739444
9.5515585 35.0393143 10.8737392
8.905858 33.7705155 10.8735552
9.6801214 32.5784188 10.8736192
9.0347252 31.310009 10.8738022
9.8088494 30.1182346 10.8738824
9.1635513 28.8498078 10.8740798
9.9378854 27.6580239 10.8742
9.2925902 26.3892403 10.8744432
10.0669422 25.1975994 10.8746158
9.4216023 23.9293672 10.8749962
10.1961908 22.7376156 10.8751116
9.5510731 21.4690247 10.8752842
10.3254471 20.2776508 10.875352
9.6800165 19.0091801 10.875267
10.4545317 17.8175259 10.875371
9.8092413 16.5493546 10.874939
10.5840311 15.3578491 10.8748646
9.938738 14.0892878 10.8744154
10.7133446 12.8974924 10.8744298
10.0677471 11.6293192 10.8738748
10.8419504 10.4374933 10.8737688
10.1964998 9.1696653 10.8736544
10.9709054 7.9774242 10.873456
10.3252964 6.7091251 10.8736068
11.0999546 5.5170465 10.8734274
10.4544459 4.2492771 10.8735362
11.2292929 3.0571775 10.8735342
10.5834923 1.7886964 10.873704
11.358448 0.5964796 10.873704
10.7129908 40.0325089 10.8737774
11.487628 38.840416 10.8737126
10.8419534 37.5727158 10.8738356
11.6163845 36.3806 10.8735572
10.9709254 35.11232 10.87356
11.7454424 33.9201698 10.8736144
11.1000223 32.6522026 10.8737478
11.8741188 31.4602146 10.873744
11.2285385 30.1922836 10.8739272
12.0029221 29.0004044 10.8742208
11.3576517 27.7318974 10.8743248
12.1319857 26.5401097 10.8745318
11.4867449 25.2719174 10.8747826
12.2614288 24.0803585 10.8749342
11.615573 22.8115444 10.8751346
12.3903141 21.6201821 10.8751926
11.745018 20.3513241 10.8751888
12.5196066 19.1599941 10.8751822
11.8743668 17.8914014 10.8750744
12.648984 16.699955 10.8749762
12.0037632 15.4309683 10.8746672
12.7783528 14.2392931 10.8746214
12.1330891 12.970791 10.8741732
12.9071026 11.7789974 10.8740788
12.2618771 10.510828 10.8738804
13.036149 9.3189411 10.8735762
12.390522 8.0505114 10.8736316
13.1649647 6.8584824 10.8735648
12.5196772 5.590869 10.8735828
13.2942991 4.3987303 10.8736106
12.6488714 3.1306567 10.8738748
13.4234181 1.9382888 10.8739328
12.7777081 0.6706917 10.8737736
13.5524645 40.1824188 10.874055
12.9071178 38.9146538 10.8737374
13.6818848 37.7225304 10.873867
13.0362473 36.4541817 10.8736086
13.810997 35.2619591 10.8735934
13.1650124 33.9940796 10.8736544
13.9393444 32.8020821 10.8736534
13.2938242 31.5339585 10.8736982
14.0684423 30.342207 10.873867
13.4228277 29.0736065 10.8739614
14.1973028 27.8818894 10.8740092
13.5517149 26.6137944 10.8744946
14.3263779 25.4220276 10.8747092
13.680933 24.1534576 10.8749934
14.4555931 22.9618264 10.8750306
13.8102131 21.693346 10.8752452
14.5845537 20.5017987 10.875124
13.9392644 19.233614 10.875105
14.7139473 18.0420837 10.8750526
14.0688086 16.7732678 10.8748742
14.8433162 15.5815993 10.8746158
14.1981468 14.3132696 10.8743478
14.9722452 13.1215744 10.8743812
14.3269053 11.8532716 10.8740588
15.1011553 10.6614599 10.8738384
14.4560251 9.3927364 10.8737584
15.2301903 8.2008658 10.8737498
14.5848551 6.9326168 10.8735094
15.3591728 5.7406421 10.8737622
14.7137318 4.4722185 10.8739252
15.4882241 3.2804473 10.8739662
14.8429308 2.011744 10.8740234
15.6176729 0.8198207 10.8742906
14.9719896 40.2555885 10.8740768
15.7470207 39.063755 10.874138
15.101325 37.795456 10.8740846
15.875785 36.603138 10.8740234
15.2303429 35.3354302 10.8738586
16.0048542 34.1434403 10.8738356
15.3590517 32.8757058 10.8738996
16.1335602 31.6836548 10.8737402
15.4880562 30.4156246 10.8738442
16.2627144 29.2237606 10.8739692
15.6171313 27.956028 10.8741922
16.3916474 26.764082 10.8742714
15.7459717 25.4958649 10.8743878
16.5205117 24.3043766 10.8746796
15.8747826 23.0360661 10.8747798
16.6494885 21.8441392 10.874815
16.0042763 20.5761071 10.8749124
16.7791596 19.3845062 10.8746768
16.1337185 18.115612 10.874589
16.908308 16.9238434 10.874464
16.2630081 15.6552162 10.8743916
17.0372353 14.4636822 10.8741532
16.3920899 13.1950779 10.8740188
17.1662979 12.0032578 10.8738308
16.5210533 10.7343035 10.8736086
17.2951355 9.5424824 10.8736706
16.6499024 8.2742081 10.8738766
17.4241791 7.082212 10.8737326
16.7789746 5.8137026 10.8741484
17.5533123 4.6218558 10.8741742
16.9077702 3.3535111 10.8743382
17.6823406 2.1615694 10.8746034
17.0372009 0.8935478 10.8744898
17.8119412 40.4055023 10.8746196
17.1665764 39.1374054 10.8744822
17.9411716 37.945694 10.8746034
17.2955818 36.677414 10.8742056
18.0701122 35.48555 10.8744192
17.4242459 34.2177429 10.8739396
18.1989975 33.0258827 10.8739986
17.5533066 31.7575188 10.8738098
18.3280621 30.5656071 10.8737718
17.6824761 29.2976494 10.8737822
18.4568978 28.1056995 10.8738414
17.8111763 26.8377152 10.8739176
18.5859776 25.645752 10.874073
17.9399624 24.3776283 10.87422
18.7147846 23.1855812 10.8742638
18.0692101 21.9176084 10.8744832
18.8440438 20.7258396 10.8743316
18.1986637 19.4573498 10.8744354
18.9734822 18.2653504 10.8741922
18.3281517 16.9972286 10.8743812
19.1023388 15.8053046 10.8739606
18.4568825 14.5372372 10.8741016
19.2313404 13.3452864 10.8739492
18.5862179 12.0765762 10.8738452
19.3603096 10.884739 10.8736792
18.715107 9.6165381 10.8736764
19.4891701 8.424696 10.8739682
18.8438854 7.1561451 10.8740808
19.6181221 5.96446 10.8742876
18.9729062 4.6957402 10.8744546
19.7474518 3.5039585 10.8746738
19.1022396 2.2354331 10.874612
19.8768864 1.0436854 10.874814
19.2314167 40.4788399 10.8749372
20.0061302 39.287487 10.875146
19.3608322 38.0189247 10.874817
20.1353874 36.8271446 10.8748914
19.4897099 35.5591355 10.8743744
20.2642002 34.3674355 10.8743048
19.6187001 33.0988922 10.874138
20.3933067 31.9070148 10.874056
19.7478199 30.6392327 10.8738566
20.5221462 29.4472046 10.8738442
19.8765698 28.179575 10.873891
20.6511402 26.9874344 10.8737584
20.0053768 25.7194596 10.8738728
20.7801342 24.5273648 10.8738298
20.1345615 23.2599583 10.8740406
20.9092084 22.0677929 10.8739042
20.263504 20.799635 10.873971
21.0384445 19.6074353 10.8738872
20.3928566 18.3394222 10.8740482
21.1673164 17.1474457 10.8738794
20.5219479 15.8791552 10.8739234
21.2965832 14.6872835 10.8736812
20.6512032 13.4185143 10.87352
21.4254589 12.2264366 10.8735886
20.7800846 10.9581262 10.8737726
21.5543118 9.7663279 10.8738604
20.9090004 8.4976444 10.8740388
21.6832066 7.3059888 10.8741646
21.0379543 6.0374699 10.8744098
21.812212 4.8456226 10.8745842
21.1670685 3.5773299 10.874961
21.9416256 2.3857391 10.8750868
21.2965946 1.116915 10.8752538
22.0712452 40.6296349 10.8753806
21.4258518 39.3610802 10.8753042
22.2001019 38.1694107 10.8753958
21.5548821 36.9013368 10.8749676
22.3296967 35.7098809 10.8748752
21.6841107 34.4413529 10.8744354
22.458807 33.2495232 10.8744632
21.8131066 31.9813996 10.873912
22.5871964 30.7894821 10.8738004
21.9417362 29.5215607 10.873685
22.7161885 28.329525 10.8734846
22.070612 27.0610313 10.8736306
22.8452644 25.869009 10.873459
22.1995411 24.601183 10.8735762
22.9744892 23.4087963 10.8735524
22.3287335 22.1406174 10.873705
23.1033897 20.9487762 10.8737374
22.4579659 19.6804486 10.8737546
23.2324696 18.488411 10.8736678
22.5867577 17.2205277 10.8738012
23.3616371 16.0285549 10.8735428
22.716137 14.7602463 10.8735256
22.845377 12.3001318 10.873724
22.9739572 9.8403636 10.8738928
23.1029644 7.379971 10.8742944
23.2320843 4.919963 10.8747482
23.3612919 2.4595397 10.875106
