POSCAR file written by OVITO
1
23.4669037 0.0 0.0
0.0 40.6458702 0.0
0.0 0.0 18.4
728 
Cartesian
0.645 39.3800011 7.5
0.516 36.9239998 7.5
0.387 34.4669991 7.5
0.258 32.0099983 7.5
0.129 29.5540009 7.5
0.0 27.0970001 7.5
2.8369999 40.4970017 7.5
2.063 39.3059998 7.5
2.708 38.0400009 7.5
1.934 36.848999 7.5
2.579 35.5839997 7.5
1.805 34.3930016 7.5
2.4500001 33.1269989 7.5
1.676 31.9360008 7.5
2.3210001 30.6709996 7.5
1.5470001 29.4790001 7.5
2.1919999 28.2140007 7.5
1.418 27.0230007 7.5
2.063 25.757 7.5
1.289 24.566 7.5
1.934 23.3010006 7.5
1.16 22.1100006 7.5
1.805 20.844 7.5
1.0319999 19.6529999 7.5
1.676 18.3869991 7.5
0.903 17.1959992 7.5
1.5470001 15.9309998 7.5
0.774 14.7399998 7.5
1.418 13.474 7.5
0.645 12.283 7.5
1.289 11.0179996 7.5
0.516 9.8260002 7.5
1.16 8.5609999 7.5
0.387 7.3699999 7.5
1.0319999 6.1040001 7.5
0.258 4.9130002 7.5
0.903 3.648 7.5
0.129 2.457 7.5
0.774 1.191 7.5
0.0 0.0 7.5
4.2550001 40.4230004 7.5
4.9000002 39.1570015 7.5
4.1259999 37.9659996 7.5
4.7709999 36.7000008 7.5
3.997 35.5089989 7.5
4.6420002 34.2439995 7.5
3.868 33.0530014 7.5
4.513 31.7870007 7.5
3.7390001 30.5960007 7.5
4.3839998 29.3309994 7.5
3.6099999 28.1389999 7.5
4.2550001 26.8740006 7.5
3.481 25.6830006 7.5
4.1259999 24.4169998 7.5
3.352 23.2259998 7.5
3.997 21.9610004 7.5
3.2230001 20.7700005 7.5
3.868 19.5039997 7.5
3.095 18.3129997 7.5
3.7390001 17.0470009 7.5
2.9660002 15.856 7.5
3.6099999 14.5909996 7.5
2.8369999 13.3999996 7.5
3.481 12.1339998 7.5
2.708 10.9429998 7.5
3.352 9.6780005 7.5
2.579 8.4870005 7.5
3.2230001 7.2210002 7.5
2.4500001 6.0300002 7.5
3.095 4.764 7.5
2.3210001 3.573 7.5
2.9660002 2.3080001 7.5
2.1919999 1.117 7.5
7.092 40.2739983 7.5
6.3179999 39.0830002 7.5
6.9629998 37.8170014 7.5
6.1890001 36.6259995 7.5
6.8340001 35.3600006 7.5
6.0599999 34.1689987 7.5
6.7049999 32.9039994 7.5
5.9310002 31.7129994 7.5
6.5760002 30.4470005 7.5
5.8020001 29.2560005 7.5
6.4470001 27.9909992 7.5
5.6729999 26.7989998 7.5
6.3179999 25.5340004 7.5
5.5440002 24.3430004 7.5
6.1890001 23.0769997 7.5
5.415 21.8859998 7.5
6.0599999 20.6210003 7.5
5.2870002 19.4300003 7.5
5.9310002 18.1639996 7.5
5.158 16.9729996 7.5
5.8020001 15.7069998 7.5
5.0289998 14.5159998 7.5
5.6729999 13.2510004 7.5
4.9000002 12.0600004 7.5
5.5440002 10.7939997 7.5
4.7709999 9.6029997 7.5
5.415 8.3380003 7.5
4.6420002 7.1469998 7.5
5.2870002 5.881 7.5
4.513 4.6900001 7.5
5.158 3.424 7.5
4.3839998 2.2330001 7.5
5.0289998 0.968 7.5
8.5100003 40.1990013 7.5
9.1549997 38.9339982 7.5
8.3809996 37.7430001 7.5
9.026 36.4770012 7.5
8.2519999 35.2859993 7.5
8.8970004 34.0200005 7.5
8.1230002 32.8289986 7.5
8.7679997 31.5639992 7.5
7.994 30.3729992 7.5
8.639 29.1070004 7.5
7.8649998 27.9160004 7.5
8.5100003 26.6509991 7.5
7.7360001 25.4599991 7.5
8.3809996 24.1940003 7.5
7.6069999 23.0030003 7.5
8.2519999 21.7369995 7.5
7.4780002 20.5459996 7.5
8.1230002 19.2810001 7.5
7.3499999 18.0900002 7.5
7.994 16.8239994 7.5
7.2210002 15.6330004 7.5
7.8649998 14.3669996 7.5
7.092 13.1759996 7.5
7.7360001 11.9110004 7.5
6.9629998 10.7200003 7.5
7.6069999 9.4540005 7.5
6.8340001 8.2629995 7.5
7.4780002 6.9980002 7.5
6.7049999 5.8070002 7.5
7.3499999 4.5409999 7.5
6.5760002 3.3499999 7.5
7.2210002 2.0840001 7.5
6.4470001 0.893 7.5
11.3470001 40.0499992 7.5
10.573 38.8590012 7.5
11.2180004 37.5940018 7.5
10.4440003 36.4029999 7.5
11.0889998 35.137001 7.5
10.3149996 33.9459992 7.5
10.96 32.6800003 7.5
10.1859999 31.4890003 7.5
10.8310004 30.2240009 7.5
10.0570002 29.0330009 7.5
10.7019997 27.7670002 7.5
9.9280006 26.5760002 7.5
10.573 25.3110008 7.5
9.7989998 24.1200008 7.5
10.4440003 22.8540002 7.5
9.6700001 21.6630001 7.5
10.3149996 20.3969994 7.5
9.5410004 19.2059994 7.5
10.1859999 17.941 7.5
9.4130001 16.75 7.5
10.0570002 15.4840002 7.5
9.2840004 14.2930002 7.5
9.9280006 13.0279999 7.5
9.1549997 11.8360005 7.5
9.7989998 10.5710001 7.5
9.026 9.3800001 7.5
9.6700001 8.1140003 7.5
8.8970004 6.923 7.5
9.5410004 5.658 7.5
8.7679997 4.467 7.5
9.4130001 3.201 7.5
8.639 2.01 7.5
9.2840004 0.744 7.5
12.7650004 39.9760018 7.5
13.4099999 38.7099991 7.5
12.6359997 37.519001 7.5
13.2810001 36.2540016 7.5
12.507 35.0629997 7.5
13.1520004 33.7970009 7.5
12.3780003 32.605999 7.5
13.0229998 31.3400002 7.5
12.2489996 30.1490002 7.5
12.8940002 28.8840008 7.5
12.1199999 27.6930008 7.5
12.7650004 26.4270001 7.5
11.9910002 25.2360001 7.5
12.6359997 23.9710008 7.5
11.8620006 22.7800007 7.5
12.507 21.514 7.5
11.7329998 20.323 7.5
12.3780003 19.0569992 7.5
11.6049996 17.8659992 7.5
12.2489996 16.6009999 7.5
11.4759999 15.4099999 7.5
12.1199999 14.1440001 7.5
11.3470001 12.9530002 7.5
11.9910002 11.6879998 7.5
11.2180004 10.4960003 7.5
11.8620006 9.231 7.5
11.0889998 8.04 7.5
11.7329998 6.7740002 7.5
10.96 5.5830002 7.5
11.6049996 4.3179999 7.5
10.8310004 3.1270001 7.5
11.4759999 1.861 7.5
10.7019997 0.67 7.5
15.6020003 39.8269997 7.5
14.8280001 38.6360016 7.5
15.4729996 37.3699989 7.5
14.6990004 36.1790009 7.5
15.3439999 34.9140016 7.5
14.5699997 33.7229996 7.5
15.2150002 32.4570008 7.5
14.441 31.2660008 7.5
15.0860004 30.0009995 7.5
14.3120003 28.809 7.5
14.9569998 27.5440007 7.5
14.1829996 26.3530007 7.5
14.8280001 25.0869999 7.5
14.0539999 23.896 7.5
14.6990004 22.6310005 7.5
13.9250002 21.4400006 7.5
14.5699997 20.1739998 7.5
13.7959996 18.9829998 7.5
14.441 17.7169991 7.5
13.6680002 16.5259991 7.5
14.3120003 15.2609997 7.5
13.5389996 14.0699997 7.5
14.1829996 12.8039999 7.5
13.4099999 11.6129999 7.5
14.0539999 10.3479996 7.5
13.2810001 9.1560001 7.5
13.9250002 7.8909998 7.5
13.1520004 6.6999998 7.5
13.7959996 5.434 7.5
13.0229998 4.243 7.5
13.6680002 2.978 7.5
12.8940002 1.787 7.5
13.5389996 0.5210001 7.5
17.0200005 39.7529984 7.5
17.6650009 38.4869995 7.5
16.8910008 37.2960014 7.5
17.5359993 36.0299988 7.5
16.7619992 34.8390008 7.5
17.4069996 33.5740013 7.5
16.6329994 32.3829994 7.5
17.2779999 31.1170006 7.5
16.5039997 29.9260006 7.5
17.1490002 28.6609993 7.5
16.375 27.4689999 7.5
17.0200005 26.2040005 7.5
16.2460003 25.0130005 7.5
16.8910008 23.7469998 7.5
16.1170006 22.5559998 7.5
16.7619992 21.2910004 7.5
15.988 20.1000004 7.5
16.6329994 18.8339997 7.5
15.8599998 17.6429997 7.5
16.5039997 16.3770008 7.5
15.731 15.1859999 7.5
16.375 13.9209996 7.5
15.6020003 12.7299996 7.5
16.2460003 11.4639998 7.5
15.4729996 10.2729998 7.5
16.1170006 9.0080004 7.5
15.3439999 7.8169999 7.5
15.988 6.5510001 7.5
15.2150002 5.3600001 7.5
15.8599998 4.0939999 7.5
15.0860004 2.9030002 7.5
15.731 1.638 7.5
14.9569998 0.447 7.5
19.8570004 39.6040001 7.5
19.0830002 38.4129982 7.5
19.7280007 37.1469994 7.5
18.9540006 35.9560014 7.5
19.599001 34.6899987 7.5
18.8250008 33.4990006 7.5
19.4699993 32.2340012 7.5
18.6959992 31.0429993 7.5
19.3409996 29.7770005 7.5
18.5669995 28.5860005 7.5
19.2119999 27.3209992 7.5
18.4379998 26.1289997 7.5
19.0830002 24.8640004 7.5
18.309 23.6730004 7.5
18.9540006 22.4069996 7.5
18.1800003 21.2159996 7.5
18.8250008 19.9510002 7.5
18.0510006 18.7600003 7.5
18.6959992 17.4939995 7.5
17.9230004 16.3029995 7.5
18.5669995 15.0369997 7.5
17.7940007 13.8459998 7.5
18.4379998 12.5810004 7.5
17.6650009 11.3900004 7.5
18.309 10.1239996 7.5
17.5359993 8.9329996 7.5
18.1800003 7.6680002 7.5
17.4069996 6.4770003 7.5
18.0510006 5.211 7.5
17.2779999 4.02 7.5
17.9230004 2.754 7.5
17.1490002 1.563 7.5
17.7940007 0.298 7.5
21.2749996 39.5289994 7.5
21.9200002 38.264 7.5
21.1459999 37.0730019 7.5
21.7910004 35.8069992 7.5
21.0170002 34.6160012 7.5
21.6620007 33.3499985 7.5
20.8880006 32.1590004 7.5
21.533001 30.8939992 7.5
20.7590008 29.7029991 7.5
21.4039993 28.4370003 7.5
20.6299992 27.2460003 7.5
21.2749996 25.981001 7.5
20.5009995 24.7900009 7.5
21.1459999 23.5240002 7.5
20.3719998 22.3330002 7.5
21.0170002 21.0669994 7.5
20.243 19.8759996 7.5
20.8880006 18.6110001 7.5
20.1140003 17.4200001 7.5
20.7590008 16.1539993 7.5
19.9860002 14.9630004 7.5
20.6299992 13.698 7.5
19.8570004 12.5059996 7.5
20.5009995 11.2410002 7.5
19.7280007 10.0500002 7.5
20.3719998 8.7840004 7.5
19.599001 7.593 7.5
20.243 6.3280001 7.5
19.4699993 5.1370001 7.5
20.1140003 3.8710002 7.5
19.3409996 2.6800001 7.5
19.9860002 1.414 7.5
19.2119999 0.223 7.5
23.3379994 38.1889992 7.5
23.2089996 35.7330017 7.5
23.0799999 33.276001 7.5
22.9510002 30.8190003 7.5
22.8220005 28.3630009 7.5
22.6930008 25.9060002 7.5
23.3379994 24.6410008 7.5
22.5639992 23.4500008 7.5
23.2089996 22.184 7.5
22.4349995 20.993 7.5
23.0799999 19.7269993 7.5
22.3059998 18.5359993 7.5
22.9510002 17.2709999 7.5
22.1779995 16.0799999 7.5
22.8220005 14.8140002 7.5
22.0489998 13.6230002 7.5
22.6930008 12.3579998 7.5
21.9200002 11.1660004 7.5
22.5639992 9.901 7.5
21.7910004 8.7100001 7.5
22.4349995 7.4439998 7.5
21.6620007 6.2529998 7.5
22.3059998 4.988 7.5
21.533001 3.797 7.5
22.1779995 2.5309999 7.5
21.4039993 1.34 7.5
22.0489998 0.074 7.5
0.0 13.5489998 10.9
0.129 11.092 10.9
0.258 8.6350003 10.9
0.387 6.1789999 10.9
0.516 3.7219999 10.9
0.645 1.266 10.9
0.0 0.0 10.9
0.774 39.4550019 10.9
0.129 38.1889992 10.9
0.903 36.9980012 10.9
0.258 35.7330017 10.9
1.0319999 34.5419998 10.9
0.387 33.276001 10.9
1.16 32.0849991 10.9
0.516 30.8190003 10.9
1.289 29.6280003 10.9
0.645 28.3630009 10.9
1.418 27.1720009 10.9
0.774 25.9060002 10.9
1.5470001 24.7150002 10.9
0.903 23.4500008 10.9
1.676 22.2579994 10.9
1.0319999 20.993 10.9
1.805 19.8020001 10.9
1.16 18.5359993 10.9
1.934 17.3449993 10.9
1.289 16.0799999 10.9
2.063 14.889 10.9
1.418 13.6230002 10.9
2.1919999 12.4320002 10.9
1.5470001 11.1660004 10.9
2.3210001 9.9750004 10.9
1.676 8.7100001 10.9
2.4500001 7.5190001 10.9
1.805 6.2529998 10.9
2.579 5.0619998 10.9
1.934 3.797 10.9
2.708 2.606 10.9
2.063 1.34 10.9
2.8369999 0.149 10.9
2.1919999 39.5289994 10.9
2.9660002 38.3380013 10.9
2.3210001 37.0730019 10.9
3.095 35.882 10.9
2.4500001 34.6160012 10.9
3.2230001 33.4249993 10.9
2.579 32.1590004 10.9
3.352 30.9680004 10.9
2.708 29.7029991 10.9
3.481 28.5119992 10.9
2.8369999 27.2460003 10.9
3.6099999 26.0550003 10.9
2.9660002 24.7900009 10.9
3.7390001 23.5979996 10.9
3.095 22.3330002 10.9
3.868 21.1420002 10.9
3.2230001 19.8759996 10.9
3.997 18.6849995 10.9
3.352 17.4200001 10.9
4.1259999 16.2290001 10.9
3.481 14.9630004 10.9
4.2550001 13.7720003 10.9
3.6099999 12.5059996 10.9
4.3839998 11.3149996 10.9
3.7390001 10.0500002 10.9
4.513 8.8590002 10.9
3.868 7.593 10.9
4.6420002 6.402 10.9
3.997 5.1370001 10.9
4.7709999 3.945 10.9
4.1259999 2.6800001 10.9
4.9000002 1.489 10.9
4.2550001 0.223 10.9
5.0289998 39.6780014 10.9
4.3839998 38.4129982 10.9
5.158 37.2210007 10.9
4.513 35.9560014 10.9
5.2870002 34.7649994 10.9
4.6420002 33.4990006 10.9
5.415 32.3079987 10.9
4.7709999 31.0429993 10.9
5.5440002 29.8519994 10.9
4.9000002 28.5860005 10.9
5.6729999 27.3950005 10.9
5.0289998 26.1289997 10.9
5.8020001 24.9379998 10.9
5.158 23.6730004 10.9
5.9310002 22.4820004 10.9
5.2870002 21.2159996 10.9
6.0599999 20.0249996 10.9
5.415 18.7600003 10.9
6.1890001 17.5690003 10.9
5.5440002 16.3029995 10.9
6.3179999 15.1120005 10.9
5.6729999 13.8459998 10.9
6.4470001 12.6549998 10.9
5.8020001 11.3900004 10.9
6.5760002 10.1990004 10.9
5.9310002 8.9329996 10.9
6.7049999 7.7420001 10.9
6.0599999 6.4770003 10.9
6.8340001 5.2849999 10.9
6.1890001 4.02 10.9
6.9629998 2.829 10.9
6.3179999 1.563 10.9
7.092 0.372 10.9
6.4470001 39.7529984 10.9
7.2210002 38.5610008 10.9
6.5760002 37.2960014 10.9
7.3499999 36.1049995 10.9
6.7049999 34.8390008 10.9
7.4780002 33.6479988 10.9
6.8340001 32.3829994 10.9
7.6069999 31.1919994 10.9
6.9629998 29.9260006 10.9
7.7360001 28.7350006 10.9
7.092 27.4689999 10.9
7.8649998 26.2779999 10.9
7.2210002 25.0130005 10.9
7.994 23.8220005 10.9
7.3499999 22.5559998 10.9
8.1230002 21.3649998 10.9
7.4780002 20.1000004 10.9
8.2519999 18.9090004 10.9
7.6069999 17.6429997 10.9
8.3809996 16.4519997 10.9
7.7360001 15.1859999 10.9
8.5100003 13.995 10.9
7.8649998 12.7299996 10.9
8.639 11.5389996 10.9
7.994 10.2729998 10.9
8.7679997 9.0819998 10.9
8.1230002 7.8169999 10.9
8.8970004 6.625 10.9
8.2519999 5.3600001 10.9
9.026 4.1690002 10.9
8.3809996 2.9030002 10.9
9.1549997 1.712 10.9
8.5100003 0.447 10.9
9.2840004 39.901001 10.9
8.639 38.6360016 10.9
9.4130001 37.4449997 10.9
8.7679997 36.1790009 10.9
9.5410004 34.987999 10.9
8.8970004 33.7229996 10.9
9.6700001 32.5320015 10.9
9.026 31.2660008 10.9
9.7989998 30.0750008 10.9
9.1549997 28.809 10.9
9.9280006 27.6180001 10.9
9.2840004 26.3530007 10.9
10.0570002 25.1620007 10.9
9.4130001 23.896 10.9
10.1859999 22.7049999 10.9
9.5410004 21.4400006 10.9
10.3149996 20.2479992 10.9
9.6700001 18.9829998 10.9
10.4440003 17.7919998 10.9
9.7989998 16.5259991 10.9
10.573 15.3350001 10.9
9.9280006 14.0699997 10.9
10.7019997 12.8789998 10.9
10.0570002 11.6129999 10.9
10.8310004 10.422 10.9
10.1859999 9.1560001 10.9
10.96 7.9650002 10.9
10.3149996 6.6999998 10.9
11.0889998 5.5089998 10.9
10.4440003 4.243 10.9
11.2180004 3.052 10.9
10.573 1.787 10.9
11.3470001 0.596 10.9
10.7019997 39.9760018 10.9
11.4759999 38.7849999 10.9
10.8310004 37.519001 10.9
11.6049996 36.3279991 10.9
10.96 35.0629997 10.9
11.7329998 33.8720016 10.9
11.0889998 32.605999 10.9
11.8620006 31.4150009 10.9
11.2180004 30.1490002 10.9
11.9910002 28.9580002 10.9
11.3470001 27.6930008 10.9
12.1199999 26.5020008 10.9
11.4759999 25.2360001 10.9
12.2489996 24.0450001 10.9
11.6049996 22.7800007 10.9
12.3780003 21.5879994 10.9
11.7329998 20.323 10.9
12.507 19.132 10.9
11.8620006 17.8659992 10.9
12.6359997 16.6749993 10.9
11.9910002 15.4099999 10.9
12.7650004 14.2189999 10.9
12.1199999 12.9530002 10.9
12.8940002 11.7620001 10.9
12.2489996 10.4960003 10.9
13.0229998 9.3050003 10.9
12.3780003 8.04 10.9
13.1520004 6.849 10.9
12.507 5.5830002 10.9
13.2810001 4.3920002 10.9
12.6359997 3.1270001 10.9
13.4099999 1.936 10.9
12.7650004 0.67 10.9
13.5389996 40.125 10.9
12.8940002 38.8590012 10.9
13.6680002 37.6679993 10.9
13.0229998 36.4029999 10.9
13.7959996 35.2120018 10.9
13.1520004 33.9459992 10.9
13.9250002 32.7550011 10.9
13.2810001 31.4890003 10.9
14.0539999 30.2980003 10.9
13.4099999 29.0330009 10.9
14.1829996 27.8419992 10.9
13.5389996 26.5760002 10.9
14.3120003 25.3850002 10.9
13.6680002 24.1200008 10.9
14.441 22.9279996 10.9
13.7959996 21.6630001 10.9
14.5699997 20.4720001 10.9
13.9250002 19.2059994 10.9
14.6990004 18.0149994 10.9
14.0539999 16.75 10.9
14.8280001 15.559 10.9
14.1829996 14.2930002 10.9
14.9569998 13.1020002 10.9
14.3120003 11.8360005 10.9
15.0860004 10.6450005 10.9
14.441 9.3800001 10.9
15.2150002 8.1890001 10.9
14.5699997 6.923 10.9
15.3439999 5.7319999 10.9
14.6990004 4.467 10.9
15.4729996 3.2750001 10.9
14.8280001 2.01 10.9
15.6020003 0.819 10.9
14.9569998 40.1990013 10.9
15.731 39.0079994 10.9
15.0860004 37.7430001 10.9
15.8599998 36.5519982 10.9
15.2150002 35.2859993 10.9
15.988 34.0950012 10.9
15.3439999 32.8289986 10.9
16.1170006 31.6380005 10.9
15.4729996 30.3729992 10.9
16.2460003 29.1819992 10.9
15.6020003 27.9160004 10.9
16.375 26.7250004 10.9
15.731 25.4599991 10.9
16.5039997 24.2679997 10.9
15.8599998 23.0030003 10.9
16.6329994 21.8120003 10.9
15.988 20.5459996 10.9
16.7619992 19.3549996 10.9
16.1170006 18.0900002 10.9
16.8910008 16.8990002 10.9
16.2460003 15.6330004 10.9
17.0200005 14.4420004 10.9
16.375 13.1759996 10.9
17.1490002 11.9849998 10.9
16.5039997 10.7200003 10.9
17.2779999 9.5290003 10.9
16.6329994 8.2629995 10.9
17.4069996 7.072 10.9
16.7619992 5.8070002 10.9
17.5359993 4.6149998 10.9
16.8910008 3.3499999 10.9
17.6650009 2.1589999 10.9
17.0200005 0.893 10.9
17.7940007 40.3479996 10.9
17.1490002 39.0830002 10.9
17.9230004 37.8909988 10.9
17.2779999 36.6259995 10.9
18.0510006 35.4350014 10.9
17.4069996 34.1689987 10.9
18.1800003 32.9780006 10.9
17.5359993 31.7129994 10.9
18.309 30.5219994 10.9
17.6650009 29.2560005 10.9
18.4379998 28.0650005 10.9
17.7940007 26.7989998 10.9
18.5669995 25.6079998 10.9
17.9230004 24.3430004 10.9
18.6959992 23.1520004 10.9
18.0510006 21.8859998 10.9
18.8250008 20.6949997 10.9
18.1800003 19.4300003 10.9
18.9540006 18.2390003 10.9
18.309 16.9729996 10.9
19.0830002 15.7819996 10.9
18.4379998 14.5159998 10.9
19.2119999 13.3249998 10.9
18.5669995 12.0600004 10.9
19.3409996 10.8690004 10.9
18.6959992 9.6029997 10.9
19.4699993 8.4119997 10.9
18.8250008 7.1469998 10.9
19.599001 5.955 10.9
18.9540006 4.6900001 10.9
19.7280007 3.4990001 10.9
19.0830002 2.2330001 10.9
19.8570004 1.0420001 10.9
19.2119999 40.4230004 10.9
19.9860002 39.230999 10.9
19.3409996 37.9659996 10.9
20.1140003 36.7750016 10.9
19.4699993 35.5089989 10.9
20.243 34.3180008 10.9
19.599001 33.0530014 10.9
20.3719998 31.8619996 10.9
19.7280007 30.5960007 10.9
20.5009995 29.4050007 10.9
19.8570004 28.1389999 10.9
20.6299992 26.948 10.9
19.9860002 25.6830006 10.9
20.7590008 24.4920006 10.9
20.1140003 23.2259998 10.9
20.8880006 22.0349998 10.9
20.243 20.7700005 10.9
21.0170002 19.5790005 10.9
20.3719998 18.3129997 10.9
21.1459999 17.1219997 10.9
20.5009995 15.856 10.9
21.2749996 14.665 10.9
20.6299992 13.3999996 10.9
21.4039993 12.2089996 10.9
20.7590008 10.9429998 10.9
21.533001 9.7519999 10.9
20.8880006 8.4870005 10.9
21.6620007 7.2950001 10.9
21.0170002 6.0300002 10.9
21.7910004 4.8390002 10.9
21.1459999 3.573 10.9
21.9200002 2.382 10.9
21.2749996 1.117 10.9
22.0489998 40.5709992 10.9
21.4039993 39.3059998 10.9
22.1779995 38.1150017 10.9
21.533001 36.848999 10.9
22.3059998 35.658001 10.9
21.6620007 34.3930016 10.9
22.4349995 33.2019997 10.9
21.7910004 31.9360008 10.9
22.5639992 30.7450009 10.9
21.9200002 29.4790001 10.9
22.6930008 28.2880001 10.9
22.0489998 27.0230007 10.9
22.8220005 25.8320008 10.9
22.1779995 24.566 10.9
22.9510002 23.375 10.9
22.3059998 22.1100006 10.9
23.0799999 20.9179994 10.9
22.4349995 19.6529999 10.9
23.2089996 18.4619999 10.9
22.5639992 17.1959992 10.9
23.3379994 16.0049992 10.9
22.6930008 14.7399998 10.9
22.8220005 12.283 10.9
22.9510002 9.8260002 10.9
23.0799999 7.3699999 10.9
23.2089996 4.9130002 10.9
23.3379994 2.457 10.9
