written by TR 
1.000000000 
99.974584900 0.000000000 0.000000000 
49.987292450 86.580530256 0.000000000 
0.000000000 0.000000000 18.400000000 
Type1 
6628
Cartesian 
0.72401632 1.21919880 7.50000000 
0.00000000 0.00000000 7.50000000 
2.89606527 4.87679518 7.50000000 
2.17204895 3.65759639 7.50000000 
2.86589792 2.42098047 7.50000000 
2.14188161 1.20178167 7.50000000 
5.06811423 8.53439157 7.50000000 
4.34409791 7.31519278 7.50000000 
5.03794688 6.07857686 7.50000000 
4.31393056 4.85937806 7.50000000 
5.00777953 3.62276214 7.50000000 
4.28376321 2.40356334 7.50000000 
4.97761218 1.16694742 7.50000000 
7.24016318 12.19198796 7.50000000 
6.51614686 10.97278917 7.50000000 
7.20999583 9.73617324 7.50000000 
6.48597951 8.51697445 7.50000000 
7.17982849 7.28035853 7.50000000 
6.45581217 6.06115973 7.50000000 
7.14966114 4.82454381 7.50000000 
6.42564482 3.60534501 7.50000000 
7.11949379 2.36872909 7.50000000 
6.39547747 1.14953029 7.50000000 
9.41221213 15.84958435 7.50000000 
8.68819581 14.63038555 7.50000000 
9.38204479 13.39376963 7.50000000 
8.65802847 12.17457084 7.50000000 
9.35187744 10.93795491 7.50000000 
8.62786112 9.71875612 7.50000000 
9.32171009 8.48214020 7.50000000 
8.59769377 7.26294140 7.50000000 
9.29154274 6.02632548 7.50000000 
8.56752643 4.80712668 7.50000000 
9.26137540 3.57051076 7.50000000 
8.53735908 2.35131196 7.50000000 
9.23120805 1.11469604 7.50000000 
11.58426109 19.50718074 7.50000000 
10.86024477 18.28798194 7.50000000 
11.55409374 17.05136602 7.50000000 
10.83007742 15.83216723 7.50000000 
11.52392639 14.59555130 7.50000000 
10.79991007 13.37635251 7.50000000 
11.49375905 12.13973658 7.50000000 
10.76974273 10.92053779 7.50000000 
11.46359170 9.68392187 7.50000000 
10.73957538 8.46472307 7.50000000 
11.43342435 7.22810715 7.50000000 
10.70940803 6.00890835 7.50000000 
11.40325700 4.77229243 7.50000000 
10.67924069 3.55309363 7.50000000 
11.37308966 2.31647771 7.50000000 
10.64907334 1.09727891 7.50000000 
13.75631004 23.16477713 7.50000000 
13.03229372 21.94557833 7.50000000 
13.72614269 20.70896241 7.50000000 
13.00212638 19.48976361 7.50000000 
13.69597535 18.25314769 7.50000000 
12.97195903 17.03394890 7.50000000 
13.66580800 15.79733297 7.50000000 
12.94179168 14.57813418 7.50000000 
13.63564065 13.34151825 7.50000000 
12.91162433 12.12231946 7.50000000 
13.60547331 10.88570354 7.50000000 
12.88145699 9.66650474 7.50000000 
13.57530596 8.42988882 7.50000000 
12.85128964 7.21069002 7.50000000 
13.54513861 5.97407410 7.50000000 
12.82112229 4.75487530 7.50000000 
13.51497126 3.51825938 7.50000000 
12.79095495 2.29906058 7.50000000 
13.48480392 1.06244466 7.50000000 
15.92835899 26.82237352 7.50000000 
15.20434268 25.60317472 7.50000000 
15.89819165 24.36655880 7.50000000 
15.17417533 23.14736000 7.50000000 
15.86802430 21.91074408 7.50000000 
15.14400798 20.69154528 7.50000000 
15.83785695 19.45492936 7.50000000 
15.11384064 18.23573057 7.50000000 
15.80768961 16.99911464 7.50000000 
15.08367329 15.77991585 7.50000000 
15.77752226 14.54329992 7.50000000 
15.05350594 13.32410113 7.50000000 
15.74735491 12.08748521 7.50000000 
15.02333859 10.86828641 7.50000000 
15.71718756 9.63167049 7.50000000 
14.99317125 8.41247169 7.50000000 
15.68702022 7.17585577 7.50000000 
14.96300390 5.95665697 7.50000000 
15.65685287 4.72004105 7.50000000 
14.93283655 3.50084226 7.50000000 
15.62668552 2.26422633 7.50000000 
14.90266921 1.04502754 7.50000000 
18.10040795 30.47996991 7.50000000 
17.37639163 29.26077111 7.50000000 
18.07024060 28.02415519 7.50000000 
17.34622428 26.80495639 7.50000000 
18.04007325 25.56834047 7.50000000 
17.31605694 24.34914167 7.50000000 
18.00990591 23.11252575 7.50000000 
17.28588959 21.89332695 7.50000000 
17.97973856 20.65671103 7.50000000 
17.25572224 19.43751224 7.50000000 
17.94957121 18.20089631 7.50000000 
17.22555489 16.98169752 7.50000000 
17.91940387 15.74508160 7.50000000 
17.19538755 14.52588280 7.50000000 
17.88923652 13.28926688 7.50000000 
17.16522020 12.07006808 7.50000000 
17.85906917 10.83345216 7.50000000 
17.13505285 9.61425336 7.50000000 
17.82890182 8.37763744 7.50000000 
17.10488551 7.15843864 7.50000000 
17.79873448 5.92182272 7.50000000 
17.07471816 4.70262393 7.50000000 
17.76856713 3.46600800 7.50000000 
17.04455081 2.24680921 7.50000000 
17.73839978 1.01019328 7.50000000 
20.27245690 34.13756629 7.50000000 
19.54844058 32.91836750 7.50000000 
20.24228955 31.68175158 7.50000000 
19.51827324 30.46255278 7.50000000 
20.21212221 29.22593686 7.50000000 
19.48810589 28.00673806 7.50000000 
20.18195486 26.77012214 7.50000000 
19.45793854 25.55092334 7.50000000 
20.15178751 24.31430742 7.50000000 
19.42777120 23.09510862 7.50000000 
20.12162017 21.85849270 7.50000000 
19.39760385 20.63929391 7.50000000 
20.09145282 19.40267798 7.50000000 
19.36743650 18.18347919 7.50000000 
20.06128547 16.94686327 7.50000000 
19.33726915 15.72766447 7.50000000 
20.03111813 14.49104855 7.50000000 
19.30710181 13.27184975 7.50000000 
20.00095078 12.03523383 7.50000000 
19.27693446 10.81603503 7.50000000 
19.97078343 9.57941911 7.50000000 
19.24676711 8.36022031 7.50000000 
19.94061608 7.12360439 7.50000000 
19.21659977 5.90440560 7.50000000 
19.91044874 4.66778967 7.50000000 
19.18643242 3.44859088 7.50000000 
19.88028139 2.21197496 7.50000000 
19.15626507 0.99277616 7.50000000 
22.44450586 37.79516268 7.50000000 
21.72048954 36.57596389 7.50000000 
22.41433851 35.33934796 7.50000000 
21.69032219 34.12014917 7.50000000 
22.38417116 32.88353325 7.50000000 
21.66015484 31.66433445 7.50000000 
22.35400381 30.42771853 7.50000000 
21.62998750 29.20851973 7.50000000 
22.32383647 27.97190381 7.50000000 
21.59982015 26.75270501 7.50000000 
22.29366912 25.51608909 7.50000000 
21.56965280 24.29689029 7.50000000 
22.26350177 23.06027437 7.50000000 
21.53948546 21.84107558 7.50000000 
22.23333443 20.60445965 7.50000000 
21.50931811 19.38526086 7.50000000 
22.20316708 18.14864494 7.50000000 
21.47915076 16.92944614 7.50000000 
22.17299973 15.69283022 7.50000000 
21.44898341 14.47363142 7.50000000 
22.14283238 13.23701550 7.50000000 
21.41881607 12.01781670 7.50000000 
22.11266504 10.78120078 7.50000000 
21.38864872 9.56200198 7.50000000 
22.08249769 8.32538606 7.50000000 
21.35848137 7.10618727 7.50000000 
22.05233034 5.86957134 7.50000000 
21.32831403 4.65037255 7.50000000 
22.02216300 3.41375663 7.50000000 
21.29814668 2.19455783 7.50000000 
21.99199565 0.95794191 7.50000000 
24.61655481 41.45275907 7.50000000 
23.89253849 40.23356028 7.50000000 
24.58638746 38.99694435 7.50000000 
23.86237114 37.77774556 7.50000000 
24.55622011 36.54112963 7.50000000 
23.83220380 35.32193084 7.50000000 
24.52605277 34.08531492 7.50000000 
23.80203645 32.86611612 7.50000000 
24.49588542 31.62950020 7.50000000 
23.77186910 30.41030140 7.50000000 
24.46571807 29.17368548 7.50000000 
23.74170176 27.95448668 7.50000000 
24.43555073 26.71787076 7.50000000 
23.71153441 25.49867197 7.50000000 
24.40538338 24.26205604 7.50000000 
23.68136706 23.04285725 7.50000000 
24.37521603 21.80624132 7.50000000 
23.65119971 20.58704253 7.50000000 
24.34504869 19.35042661 7.50000000 
23.62103237 18.13122781 7.50000000 
24.31488134 16.89461189 7.50000000 
23.59086502 15.67541309 7.50000000 
24.28471399 14.43879717 7.50000000 
23.56069767 13.21959837 7.50000000 
24.25454664 11.98298245 7.50000000 
23.53053033 10.76378365 7.50000000 
24.22437930 9.52716773 7.50000000 
23.50036298 8.30796894 7.50000000 
24.19421195 7.07135301 7.50000000 
23.47019563 5.85215422 7.50000000 
24.16404460 4.61553830 7.50000000 
23.44002829 3.39633950 7.50000000 
24.13387726 2.15972358 7.50000000 
23.40986094 0.94052478 7.50000000 
26.78860376 45.11035546 7.50000000 
26.06458744 43.89115666 7.50000000 
26.75843642 42.65454074 7.50000000 
26.03442010 41.43534195 7.50000000 
26.72826907 40.19872602 7.50000000 
26.00425275 38.97952723 7.50000000 
26.69810172 37.74291131 7.50000000 
25.97408540 36.52371251 7.50000000 
26.66793437 35.28709659 7.50000000 
25.94391806 34.06789779 7.50000000 
26.63776703 32.83128187 7.50000000 
25.91375071 31.61208307 7.50000000 
26.60759968 30.37546715 7.50000000 
25.88358336 29.15626835 7.50000000 
26.57743233 27.91965243 7.50000000 
25.85341602 26.70045364 7.50000000 
26.54726499 25.46383771 7.50000000 
25.82324867 24.24463892 7.50000000 
26.51709764 23.00802299 7.50000000 
25.79308132 21.78882420 7.50000000 
26.48693029 20.55220828 7.50000000 
25.76291397 19.33300948 7.50000000 
26.45676295 18.09639356 7.50000000 
25.73274663 16.87719476 7.50000000 
26.42659560 15.64057884 7.50000000 
25.70257928 14.42138004 7.50000000 
26.39642825 13.18476412 7.50000000 
25.67241193 11.96556532 7.50000000 
26.36626090 10.72894940 7.50000000 
25.64224459 9.50975061 7.50000000 
26.33609356 8.27313468 7.50000000 
25.61207724 7.05393589 7.50000000 
26.30592621 5.81731997 7.50000000 
25.58190989 4.59812117 7.50000000 
26.27575886 3.36150525 7.50000000 
25.55174254 2.14230645 7.50000000 
26.24559152 0.90569053 7.50000000 
28.96065272 48.76795185 7.50000000 
28.23663640 47.54875305 7.50000000 
28.93048537 46.31213713 7.50000000 
28.20646905 45.09293833 7.50000000 
28.90031802 43.85632241 7.50000000 
28.17630170 42.63712362 7.50000000 
28.87015068 41.40050769 7.50000000 
28.14613436 40.18130890 7.50000000 
28.83998333 38.94469298 7.50000000 
28.11596701 37.72549418 7.50000000 
28.80981598 36.48887826 7.50000000 
28.08579966 35.26967946 7.50000000 
28.77964863 34.03306354 7.50000000 
28.05563232 32.81386474 7.50000000 
28.74948129 31.57724882 7.50000000 
28.02546497 30.35805002 7.50000000 
28.71931394 29.12143410 7.50000000 
27.99529762 27.90223531 7.50000000 
28.68914659 26.66561938 7.50000000 
27.96513028 25.44642059 7.50000000 
28.65897925 24.20980467 7.50000000 
27.93496293 22.99060587 7.50000000 
28.62881190 21.75398995 7.50000000 
27.90479558 20.53479115 7.50000000 
28.59864455 19.29817523 7.50000000 
27.87462823 18.07897643 7.50000000 
28.56847720 16.84236051 7.50000000 
27.84446089 15.62316171 7.50000000 
28.53830986 14.38654579 7.50000000 
27.81429354 13.16734700 7.50000000 
28.50814251 11.93073107 7.50000000 
27.78412619 10.71153228 7.50000000 
28.47797516 9.47491635 7.50000000 
27.75395885 8.25571756 7.50000000 
28.44780782 7.01910164 7.50000000 
27.72379150 5.79990284 7.50000000 
28.41764047 4.56328692 7.50000000 
27.69362415 3.34408812 7.50000000 
28.38747312 2.10747220 7.50000000 
27.66345680 0.88827340 7.50000000 
31.13270167 52.42554824 7.50000000 
30.40868535 51.20634944 7.50000000 
31.10253432 49.96973352 7.50000000 
30.37851801 48.75053472 7.50000000 
31.07236698 47.51391880 7.50000000 
30.34835066 46.29472000 7.50000000 
31.04219963 45.05810408 7.50000000 
30.31818331 43.83890529 7.50000000 
31.01203228 42.60228936 7.50000000 
30.28801596 41.38309057 7.50000000 
30.98186493 40.14647465 7.50000000 
30.25784862 38.92727585 7.50000000 
30.95169759 37.69065993 7.50000000 
30.22768127 36.47146113 7.50000000 
30.92153024 35.23484521 7.50000000 
30.19751392 34.01564641 7.50000000 
30.89136289 32.77903049 7.50000000 
30.16734658 31.55983169 7.50000000 
30.86119555 30.32321577 7.50000000 
30.13717923 29.10401698 7.50000000 
30.83102820 27.86740105 7.50000000 
30.10701188 26.64820226 7.50000000 
30.80086085 25.41158634 7.50000000 
30.07684453 24.19238754 7.50000000 
30.77069351 22.95577162 7.50000000 
30.04667719 21.73657282 7.50000000 
30.74052616 20.49995690 7.50000000 
30.01650984 19.28075810 7.50000000 
30.71035881 18.04414218 7.50000000 
29.98634249 16.82494338 7.50000000 
30.68019146 15.58832746 7.50000000 
29.95617515 14.36912867 7.50000000 
30.65002412 13.13251274 7.50000000 
29.92600780 11.91331395 7.50000000 
30.61985677 10.67669802 7.50000000 
29.89584045 9.45749923 7.50000000 
30.58968942 8.22088331 7.50000000 
29.86567311 7.00168451 7.50000000 
30.55952208 5.76506859 7.50000000 
29.83550576 4.54586979 7.50000000 
30.52935473 3.30925387 7.50000000 
29.80533841 2.09005507 7.50000000 
30.49918738 0.85343915 7.50000000 
33.30475062 56.08314463 7.50000000 
32.58073431 54.86394583 7.50000000 
33.27458328 53.62732991 7.50000000 
32.55056696 52.40813111 7.50000000 
33.24441593 51.17151519 7.50000000 
32.52039961 49.95231639 7.50000000 
33.21424858 48.71570047 7.50000000 
32.49023226 47.49650168 7.50000000 
33.18408124 46.25988575 7.50000000 
32.46006492 45.04068696 7.50000000 
33.15391389 43.80407103 7.50000000 
32.42989757 42.58487224 7.50000000 
33.12374654 41.34825632 7.50000000 
32.39973022 40.12905752 7.50000000 
33.09357919 38.89244160 7.50000000 
32.36956288 37.67324280 7.50000000 
33.06341185 36.43662688 7.50000000 
32.33939553 35.21742808 7.50000000 
33.03324450 33.98081216 7.50000000 
32.30922818 32.76161336 7.50000000 
33.00307715 31.52499744 7.50000000 
32.27906084 30.30579865 7.50000000 
32.97290981 29.06918272 7.50000000 
32.24889349 27.84998393 7.50000000 
32.94274246 26.61336801 7.50000000 
32.21872614 25.39416921 7.50000000 
32.91257511 24.15755329 7.50000000 
32.18855879 22.93835449 7.50000000 
32.88240777 21.70173857 7.50000000 
32.15839145 20.48253977 7.50000000 
32.85224042 19.24592385 7.50000000 
32.12822410 18.02672505 7.50000000 
32.82207307 16.79010913 7.50000000 
32.09805675 15.57091034 7.50000000 
32.79190572 14.33429441 7.50000000 
32.06788941 13.11509562 7.50000000 
32.76173838 11.87847970 7.50000000 
32.03772206 10.65928090 7.50000000 
32.73157103 9.42266498 7.50000000 
32.00755471 8.20346618 7.50000000 
32.70140368 6.96685026 7.50000000 
31.97738736 5.74765146 7.50000000 
32.67123634 4.51103554 7.50000000 
31.94722002 3.29183674 7.50000000 
32.64106899 2.05522082 7.50000000 
31.91705267 0.83602203 7.50000000 
35.47679958 59.74074102 7.50000000 
34.75278326 58.52154222 7.50000000 
35.44663223 57.28492630 7.50000000 
34.72261591 56.06572750 7.50000000 
35.41646488 54.82911158 7.50000000 
34.69244857 53.60991278 7.50000000 
35.38629754 52.37329686 7.50000000 
34.66228122 51.15409806 7.50000000 
35.35613019 49.91748214 7.50000000 
34.63211387 48.69828335 7.50000000 
35.32596284 47.46166742 7.50000000 
34.60194652 46.24246863 7.50000000 
35.29579550 45.00585270 7.50000000 
34.57177918 43.78665391 7.50000000 
35.26562815 42.55003799 7.50000000 
34.54161183 41.33083919 7.50000000 
35.23546080 40.09422327 7.50000000 
34.51144448 38.87502447 7.50000000 
35.20529345 37.63840855 7.50000000 
34.48127714 36.41920975 7.50000000 
35.17512611 35.18259383 7.50000000 
34.45110979 33.96339503 7.50000000 
35.14495876 32.72677911 7.50000000 
34.42094244 31.50758032 7.50000000 
35.11479141 30.27096439 7.50000000 
34.39077510 29.05176560 7.50000000 
35.08462407 27.81514968 7.50000000 
34.36060775 26.59595088 7.50000000 
35.05445672 25.35933496 7.50000000 
34.33044040 24.14013616 7.50000000 
35.02428937 22.90352024 7.50000000 
34.30027305 21.68432144 7.50000000 
34.99412202 20.44770552 7.50000000 
34.27010571 19.22850672 7.50000000 
34.96395468 17.99189080 7.50000000 
34.23993836 16.77269201 7.50000000 
34.93378733 15.53607608 7.50000000 
34.20977101 14.31687729 7.50000000 
34.90361998 13.08026137 7.50000000 
34.17960367 11.86106257 7.50000000 
34.87345264 10.62444665 7.50000000 
34.14943632 9.40524785 7.50000000 
34.84328529 8.16863193 7.50000000 
34.11926897 6.94943313 7.50000000 
34.81311794 5.71281721 7.50000000 
34.08910162 4.49361841 7.50000000 
34.78295060 3.25700249 7.50000000 
34.05893428 2.03780370 7.50000000 
34.75278325 0.80118777 7.50000000 
37.64884853 63.39833740 7.50000000 
36.92483221 62.17913861 7.50000000 
37.61868118 60.94252269 7.50000000 
36.89466487 59.72332389 7.50000000 
37.58851384 58.48670797 7.50000000 
36.86449752 57.26750917 7.50000000 
37.55834649 56.03089325 7.50000000 
36.83433017 54.81169445 7.50000000 
37.52817914 53.57507853 7.50000000 
36.80416283 52.35587973 7.50000000 
37.49801180 51.11926381 7.50000000 
36.77399548 49.90006502 7.50000000 
37.46784445 48.66344909 7.50000000 
36.74382813 47.44425030 7.50000000 
37.43767710 46.20763437 7.50000000 
36.71366078 44.98843558 7.50000000 
37.40750976 43.75181966 7.50000000 
36.68349344 42.53262086 7.50000000 
37.37734241 41.29600494 7.50000000 
36.65332609 40.07680614 7.50000000 
37.34717506 38.84019022 7.50000000 
36.62315874 37.62099142 7.50000000 
37.31700771 36.38437550 7.50000000 
36.59299140 35.16517671 7.50000000 
37.28684037 33.92856078 7.50000000 
36.56282405 32.70936199 7.50000000 
37.25667302 31.47274606 7.50000000 
36.53265670 30.25354727 7.50000000 
37.22650567 29.01693135 7.50000000 
36.50248935 27.79773255 7.50000000 
37.19633833 26.56111663 7.50000000 
36.47232201 25.34191783 7.50000000 
37.16617098 24.10530191 7.50000000 
36.44215466 22.88610311 7.50000000 
37.13600363 21.64948719 7.50000000 
36.41198731 20.43028839 7.50000000 
37.10583628 19.19367247 7.50000000 
36.38181997 17.97447368 7.50000000 
37.07566894 16.73785775 7.50000000 
36.35165262 15.51865896 7.50000000 
37.04550159 14.28204304 7.50000000 
36.32148527 13.06284424 7.50000000 
37.01533424 11.82622832 7.50000000 
36.29131793 10.60702952 7.50000000 
36.98516690 9.37041360 7.50000000 
36.26115058 8.15121480 7.50000000 
36.95499955 6.91459888 7.50000000 
36.23098323 5.69540008 7.50000000 
36.92483220 4.45878416 7.50000000 
36.20081588 3.23958537 7.50000000 
36.89466485 2.00296944 7.50000000 
36.17064854 0.78377065 7.50000000 
39.82089749 67.05593379 7.50000000 
39.09688117 65.83673500 7.50000000 
39.79073014 64.60011907 7.50000000 
39.06671382 63.38092028 7.50000000 
39.76056279 62.14430436 7.50000000 
39.03654647 60.92510556 7.50000000 
39.73039544 59.68848964 7.50000000 
39.00637913 58.46929084 7.50000000 
39.70022810 57.23267492 7.50000000 
38.97621178 56.01347612 7.50000000 
39.67006075 54.77686020 7.50000000 
38.94604443 53.55766140 7.50000000 
39.63989340 52.32104548 7.50000000 
38.91587708 51.10184669 7.50000000 
39.60972606 49.86523076 7.50000000 
38.88570974 48.64603197 7.50000000 
39.57955871 47.40941605 7.50000000 
38.85554239 46.19021725 7.50000000 
39.54939136 44.95360133 7.50000000 
38.82537504 43.73440253 7.50000000 
39.51922401 42.49778661 7.50000000 
38.79520770 41.27858781 7.50000000 
39.48905667 40.04197189 7.50000000 
38.76504035 38.82277309 7.50000000 
39.45888932 37.58615717 7.50000000 
38.73487300 36.36695838 7.50000000 
39.42872197 35.13034245 7.50000000 
38.70470566 33.91114366 7.50000000 
39.39855463 32.67452773 7.50000000 
38.67453831 31.45532894 7.50000000 
39.36838728 30.21871302 7.50000000 
38.64437096 28.99951422 7.50000000 
39.33821993 27.76289830 7.50000000 
38.61420361 26.54369950 7.50000000 
39.30805259 25.30708358 7.50000000 
38.58403627 24.08788478 7.50000000 
39.27788524 22.85126886 7.50000000 
38.55386892 21.63207006 7.50000000 
39.24771789 20.39545414 7.50000000 
38.52370157 19.17625535 7.50000000 
39.21755054 17.93963942 7.50000000 
38.49353423 16.72044063 7.50000000 
39.18738320 15.48382471 7.50000000 
38.46336688 14.26462591 7.50000000 
39.15721585 13.02800999 7.50000000 
38.43319953 11.80881119 7.50000000 
39.12704850 10.57219527 7.50000000 
38.40303218 9.35299647 7.50000000 
39.09688116 8.11638055 7.50000000 
38.37286484 6.89718175 7.50000000 
39.06671381 5.66056583 7.50000000 
38.34269749 4.44136704 7.50000000 
39.03654646 3.20475111 7.50000000 
38.31253014 1.98555232 7.50000000 
39.00637911 0.74893640 7.50000000 
41.99294644 70.71353018 7.50000000 
41.26893012 69.49433139 7.50000000 
41.96277909 68.25771546 7.50000000 
41.23876277 67.03851667 7.50000000 
41.93261174 65.80190074 7.50000000 
41.20859543 64.58270195 7.50000000 
41.90244440 63.34608603 7.50000000 
41.17842808 62.12688723 7.50000000 
41.87227705 60.89027131 7.50000000 
41.14826073 59.67107251 7.50000000 
41.84210970 58.43445659 7.50000000 
41.11809339 57.21525779 7.50000000 
41.81194236 55.97864187 7.50000000 
41.08792604 54.75944307 7.50000000 
41.78177501 53.52282715 7.50000000 
41.05775869 52.30362836 7.50000000 
41.75160766 51.06701243 7.50000000 
41.02759134 49.84781364 7.50000000 
41.72144032 48.61119772 7.50000000 
40.99742400 47.39199892 7.50000000 
41.69127297 46.15538300 7.50000000 
40.96725665 44.93618420 7.50000000 
41.66110562 43.69956828 7.50000000 
40.93708930 42.48036948 7.50000000 
41.63093827 41.24375356 7.50000000 
40.90692196 40.02455476 7.50000000 
41.60077093 38.78793884 7.50000000 
40.87675461 37.56874005 7.50000000 
41.57060358 36.33212412 7.50000000 
40.84658726 35.11292533 7.50000000 
41.54043623 33.87630941 7.50000000 
40.81641992 32.65711061 7.50000000 
41.51026889 31.42049469 7.50000000 
40.78625257 30.20129589 7.50000000 
41.48010154 28.96467997 7.50000000 
40.75608522 27.74548117 7.50000000 
41.44993419 26.50886525 7.50000000 
40.72591787 25.28966645 7.50000000 
41.41976684 24.05305053 7.50000000 
40.69575053 22.83385174 7.50000000 
41.38959950 21.59723581 7.50000000 
40.66558318 20.37803702 7.50000000 
41.35943215 19.14142109 7.50000000 
40.63541583 17.92222230 7.50000000 
41.32926480 16.68560638 7.50000000 
40.60524849 15.46640758 7.50000000 
41.29909746 14.22979166 7.50000000 
40.57508114 13.01059286 7.50000000 
41.26893011 11.77397694 7.50000000 
40.54491379 10.55477814 7.50000000 
41.23876276 9.31816222 7.50000000 
40.51474644 8.09896342 7.50000000 
41.20859542 6.86234750 7.50000000 
40.48457910 5.64314871 7.50000000 
41.17842807 4.40653278 7.50000000 
40.45441175 3.18733399 7.50000000 
41.14826072 1.95071807 7.50000000 
40.42424440 0.73151927 7.50000000 
44.16499539 74.37112657 7.50000000 
43.44097907 73.15192777 7.50000000 
44.13482805 71.91531185 7.50000000 
43.41081173 70.69611306 7.50000000 
44.10466070 69.45949713 7.50000000 
43.38064438 68.24029834 7.50000000 
44.07449335 67.00368241 7.50000000 
43.35047703 65.78448362 7.50000000 
44.04432600 64.54786770 7.50000000 
43.32030969 63.32866890 7.50000000 
44.01415866 62.09205298 7.50000000 
43.29014234 60.87285418 7.50000000 
43.98399131 59.63623826 7.50000000 
43.25997499 58.41703946 7.50000000 
43.95382396 57.18042354 7.50000000 
43.22980765 55.96122474 7.50000000 
43.92365662 54.72460882 7.50000000 
43.19964030 53.50541003 7.50000000 
43.89348927 52.26879410 7.50000000 
43.16947295 51.04959531 7.50000000 
43.86332192 49.81297939 7.50000000 
43.13930560 48.59378059 7.50000000 
43.83315458 47.35716467 7.50000000 
43.10913826 46.13796587 7.50000000 
43.80298723 44.90134995 7.50000000 
43.07897091 43.68215115 7.50000000 
43.77281988 42.44553523 7.50000000 
43.04880356 41.22633643 7.50000000 
43.74265253 39.98972051 7.50000000 
43.01863622 38.77052172 7.50000000 
43.71248519 37.53390579 7.50000000 
42.98846887 36.31470700 7.50000000 
43.68231784 35.07809108 7.50000000 
42.95830152 33.85889228 7.50000000 
43.65215049 32.62227636 7.50000000 
42.92813417 31.40307756 7.50000000 
43.62198315 30.16646164 7.50000000 
42.89796683 28.94726284 7.50000000 
43.59181580 27.71064692 7.50000000 
42.86779948 26.49144812 7.50000000 
43.56164845 25.25483220 7.50000000 
42.83763213 24.03563341 7.50000000 
43.53148110 22.79901748 7.50000000 
42.80746479 21.57981869 7.50000000 
43.50131376 20.34320276 7.50000000 
42.77729744 19.12400397 7.50000000 
43.47114641 17.88738805 7.50000000 
42.74713009 16.66818925 7.50000000 
43.44097906 15.43157333 7.50000000 
42.71696275 14.21237453 7.50000000 
43.41081172 12.97575861 7.50000000 
42.68679540 11.75655981 7.50000000 
43.38064437 10.51994389 7.50000000 
42.65662805 9.30074509 7.50000000 
43.35047702 8.06412917 7.50000000 
42.62646070 6.84493038 7.50000000 
43.32030967 5.60831445 7.50000000 
42.59629336 4.38911566 7.50000000 
43.29014233 3.15249974 7.50000000 
42.56612601 1.93330094 7.50000000 
43.25997498 0.69668502 7.50000000 
46.33704435 78.02872296 7.50000000 
45.61302803 76.80952416 7.50000000 
46.30687700 75.57290824 7.50000000 
45.58286068 74.35370944 7.50000000 
46.27670965 73.11709352 7.50000000 
45.55269333 71.89789473 7.50000000 
46.24654231 70.66127880 7.50000000 
45.52252599 69.44208001 7.50000000 
46.21637496 68.20546408 7.50000000 
45.49235864 66.98626529 7.50000000 
46.18620761 65.74964937 7.50000000 
45.46219129 64.53045057 7.50000000 
46.15604026 63.29383465 7.50000000 
45.43202395 62.07463585 7.50000000 
46.12587292 60.83801993 7.50000000 
45.40185660 59.61882113 7.50000000 
46.09570557 58.38220521 7.50000000 
45.37168925 57.16300642 7.50000000 
46.06553822 55.92639049 7.50000000 
45.34152191 54.70719170 7.50000000 
46.03537088 53.47057577 7.50000000 
45.31135456 52.25137698 7.50000000 
46.00520353 51.01476106 7.50000000 
45.28118721 49.79556226 7.50000000 
45.97503618 48.55894634 7.50000000 
45.25101986 47.33974754 7.50000000 
45.94486883 46.10313162 7.50000000 
45.22085252 44.88393282 7.50000000 
45.91470149 43.64731690 7.50000000 
45.19068517 42.42811810 7.50000000 
45.88453414 41.19150218 7.50000000 
45.16051782 39.97230339 7.50000000 
45.85436679 38.73568746 7.50000000 
45.13035048 37.51648867 7.50000000 
45.82419945 36.27987275 7.50000000 
45.10018313 35.06067395 7.50000000 
45.79403210 33.82405803 7.50000000 
45.07001578 32.60485923 7.50000000 
45.76386475 31.36824331 7.50000000 
45.03984843 30.14904451 7.50000000 
45.73369741 28.91242859 7.50000000 
45.00968109 27.69322979 7.50000000 
45.70353006 26.45661387 7.50000000 
44.97951374 25.23741508 7.50000000 
45.67336271 24.00079915 7.50000000 
44.94934639 22.78160036 7.50000000 
45.64319536 21.54498444 7.50000000 
44.91917905 20.32578564 7.50000000 
45.61302802 19.08916972 7.50000000 
44.88901170 17.86997092 7.50000000 
45.58286067 16.63335500 7.50000000 
44.85884435 15.41415620 7.50000000 
45.55269332 14.17754028 7.50000000 
44.82867700 12.95834148 7.50000000 
45.52252598 11.72172556 7.50000000 
44.79850966 10.50252677 7.50000000 
45.49235863 9.26591084 7.50000000 
44.76834231 8.04671205 7.50000000 
45.46219128 6.81009612 7.50000000 
44.73817496 5.59089733 7.50000000 
45.43202393 4.35428141 7.50000000 
44.70800762 3.13508261 7.50000000 
45.40185659 1.89846669 7.50000000 
44.67784027 0.67926789 7.50000000 
48.50909330 81.68631935 7.50000000 
47.78507698 80.46712055 7.50000000 
48.47892595 79.23050463 7.50000000 
47.75490964 78.01130583 7.50000000 
48.44875861 76.77468991 7.50000000 
47.72474229 75.55549111 7.50000000 
48.41859126 74.31887519 7.50000000 
47.69457494 73.09967640 7.50000000 
48.38842391 71.86306047 7.50000000 
47.66440759 70.64386168 7.50000000 
48.35825656 69.40724576 7.50000000 
47.63424025 68.18804696 7.50000000 
48.32808922 66.95143104 7.50000000 
47.60407290 65.73223224 7.50000000 
48.29792187 64.49561632 7.50000000 
47.57390555 63.27641752 7.50000000 
48.26775452 62.03980160 7.50000000 
47.54373821 60.82060280 7.50000000 
48.23758718 59.58398688 7.50000000 
47.51357086 58.36478809 7.50000000 
48.20741983 57.12817216 7.50000000 
47.48340351 55.90897337 7.50000000 
48.17725248 54.67235744 7.50000000 
47.45323616 53.45315865 7.50000000 
48.14708514 52.21654273 7.50000000 
47.42306882 50.99734393 7.50000000 
48.11691779 49.76072801 7.50000000 
47.39290147 48.54152921 7.50000000 
48.08675044 47.30491329 7.50000000 
47.36273412 46.08571449 7.50000000 
48.05658309 44.84909857 7.50000000 
47.33256678 43.62989977 7.50000000 
48.02641575 42.39328385 7.50000000 
47.30239943 41.17408506 7.50000000 
47.99624840 39.93746913 7.50000000 
47.27223208 38.71827034 7.50000000 
47.96608105 37.48165442 7.50000000 
47.24206474 36.26245562 7.50000000 
47.93591371 35.02583970 7.50000000 
47.21189739 33.80664090 7.50000000 
47.90574636 32.57002498 7.50000000 
47.18173004 31.35082618 7.50000000 
47.87557901 30.11421026 7.50000000 
47.15156269 28.89501146 7.50000000 
47.84541166 27.65839554 7.50000000 
47.12139535 26.43919675 7.50000000 
47.81524432 25.20258082 7.50000000 
47.09122800 23.98338203 7.50000000 
47.78507697 22.74676611 7.50000000 
47.06106065 21.52756731 7.50000000 
47.75490962 20.29095139 7.50000000 
47.03089331 19.07175259 7.50000000 
47.72474228 17.83513667 7.50000000 
47.00072596 16.61593787 7.50000000 
47.69457493 15.37932195 7.50000000 
46.97055861 14.16012315 7.50000000 
47.66440758 12.92350723 7.50000000 
46.94039126 11.70430844 7.50000000 
47.63424024 10.46769251 7.50000000 
46.91022392 9.24849372 7.50000000 
47.60407289 8.01187779 7.50000000 
46.88005657 6.79267900 7.50000000 
47.57390554 5.55606308 7.50000000 
46.84988922 4.33686428 7.50000000 
47.54373819 3.10024836 7.50000000 
46.81972188 1.88104956 7.50000000 
47.51357085 0.64443364 7.50000000 
50.68114225 85.34391574 7.50000000 
49.95712594 84.12471694 7.50000000 
50.65097491 82.88810102 7.50000000 
49.92695859 81.66890222 7.50000000 
50.62080756 80.43228630 7.50000000 
49.89679124 79.21308750 7.50000000 
50.59064021 77.97647158 7.50000000 
49.86662389 76.75727278 7.50000000 
50.56047287 75.52065686 7.50000000 
49.83645655 74.30145807 7.50000000 
50.53030552 73.06484214 7.50000000 
49.80628920 71.84564335 7.50000000 
50.50013817 70.60902743 7.50000000 
49.77612185 69.38982863 7.50000000 
50.46997082 68.15321271 7.50000000 
49.74595451 66.93401391 7.50000000 
50.43980348 65.69739799 7.50000000 
49.71578716 64.47819919 7.50000000 
50.40963613 63.24158327 7.50000000 
49.68561981 62.02238447 7.50000000 
50.37946878 60.78576855 7.50000000 
49.65545247 59.56656976 7.50000000 
50.34930144 58.32995383 7.50000000 
49.62528512 57.11075504 7.50000000 
50.31913409 55.87413912 7.50000000 
49.59511777 54.65494032 7.50000000 
50.28896674 53.41832440 7.50000000 
49.56495042 52.19912560 7.50000000 
50.25879940 50.96250968 7.50000000 
49.53478308 49.74331088 7.50000000 
50.22863205 48.50669496 7.50000000 
49.50461573 47.28749616 7.50000000 
50.19846470 46.05088024 7.50000000 
49.47444838 44.83168145 7.50000000 
50.16829735 43.59506552 7.50000000 
49.44428104 42.37586673 7.50000000 
50.13813001 41.13925080 7.50000000 
49.41411369 39.92005201 7.50000000 
50.10796266 38.68343609 7.50000000 
49.38394634 37.46423729 7.50000000 
50.07779531 36.22762137 7.50000000 
49.35377899 35.00842257 7.50000000 
50.04762797 33.77180665 7.50000000 
49.32361165 32.55260785 7.50000000 
50.01746062 31.31599193 7.50000000 
49.29344430 30.09679313 7.50000000 
49.98729327 28.86017721 7.50000000 
49.26327695 27.64097842 7.50000000 
49.95712592 26.40436249 7.50000000 
49.23310961 25.18516370 7.50000000 
49.92695858 23.94854778 7.50000000 