written by TR 
1.000000000 
112.735482000 0.000000000 0.000000000 
0.000000000 195.263582000 0.000000000 
0.000000000 0.000000000 18.400000000 
Type1 
16856
Cartesian 
0.69556779 194.02793460 7.50000000 
0.66881518 191.57208031 7.50000000 
0.64206258 189.11622602 7.50000000 
0.61530997 186.66037173 7.50000000 
0.58855736 184.20451744 7.50000000 
0.56180476 181.74866315 7.50000000 
0.53505215 179.29280886 7.50000000 
0.50829954 176.83695457 7.50000000 
0.48154694 174.38110028 7.50000000 
0.45479433 171.92524599 7.50000000 
0.42804172 169.46939170 7.50000000 
0.40128912 167.01353740 7.50000000 
0.37453651 164.55768311 7.50000000 
0.34778390 162.10182882 7.50000000 
0.32103130 159.64597453 7.50000000 
0.29427869 157.19012024 7.50000000 
0.26752608 154.73426595 7.50000000 
0.24077348 152.27841166 7.50000000 
0.21402087 149.82255737 7.50000000 
0.18726826 147.36670308 7.50000000 
0.16051566 144.91084879 7.50000000 
0.13376305 142.45499450 7.50000000 
0.10701044 139.99914020 7.50000000 
0.08025784 137.54328591 7.50000000 
0.05350523 135.08743162 7.50000000 
0.02675262 132.63157733 7.50000000 
0.00000002 130.17572304 7.50000000 
2.83577630 195.23269331 7.50000000 
2.11345593 194.01248898 7.50000000 
2.80902369 192.77683902 7.50000000 
2.08670332 191.55663469 7.50000000 
2.78227108 190.32098473 7.50000000 
2.05995071 189.10078040 7.50000000 
2.75551848 187.86513044 7.50000000 
2.03319811 186.64492611 7.50000000 
2.72876587 185.40927615 7.50000000 
2.00644550 184.18907182 7.50000000 
2.70201326 182.95342186 7.50000000 
1.97969289 181.73321753 7.50000000 
2.67526066 180.49756757 7.50000000 
1.95294029 179.27736323 7.50000000 
2.64850805 178.04171328 7.50000000 
1.92618768 176.82150894 7.50000000 
2.62175544 175.58585899 7.50000000 
1.89943507 174.36565465 7.50000000 
2.59500284 173.13000469 7.50000000 
1.87268247 171.90980036 7.50000000 
2.56825023 170.67415040 7.50000000 
1.84592986 169.45394607 7.50000000 
2.54149762 168.21829611 7.50000000 
1.81917725 166.99809178 7.50000000 
2.51474502 165.76244182 7.50000000 
1.79242465 164.54223749 7.50000000 
2.48799241 163.30658753 7.50000000 
1.76567204 162.08638320 7.50000000 
2.46123980 160.85073324 7.50000000 
1.73891943 159.63052891 7.50000000 
2.43448720 158.39487895 7.50000000 
1.71216683 157.17467462 7.50000000 
2.40773459 155.93902466 7.50000000 
1.68541422 154.71882033 7.50000000 
2.38098198 153.48317037 7.50000000 
1.65866161 152.26296603 7.50000000 
2.35422938 151.02731608 7.50000000 
1.63190901 149.80711174 7.50000000 
2.32747677 148.57146179 7.50000000 
1.60515640 147.35125745 7.50000000 
2.30072416 146.11560750 7.50000000 
1.57840379 144.89540316 7.50000000 
2.27397156 143.65975320 7.50000000 
1.55165119 142.43954887 7.50000000 
2.24721895 141.20389891 7.50000000 
1.52489858 139.98369458 7.50000000 
2.22046634 138.74804462 7.50000000 
1.49814597 137.52784029 7.50000000 
2.19371374 136.29219033 7.50000000 
1.47139337 135.07198600 7.50000000 
2.16696113 133.83633604 7.50000000 
1.44464076 132.61613171 7.50000000 
2.14020852 131.38048175 7.50000000 
1.41788815 130.16027742 7.50000000 
2.11345592 128.92462746 7.50000000 
1.39113555 127.70442313 7.50000000 
2.08670331 126.46877317 7.50000000 
1.36438294 125.24856883 7.50000000 
2.05995070 124.01291888 7.50000000 
1.33763033 122.79271454 7.50000000 
2.03319810 121.55706459 7.50000000 
1.31087773 120.33686025 7.50000000 
2.00644549 119.10121030 7.50000000 
1.28412512 117.88100596 7.50000000 
1.97969288 116.64535600 7.50000000 
1.25737251 115.42515167 7.50000000 
1.95294028 114.18950171 7.50000000 
1.23061991 112.96929738 7.50000000 
1.92618767 111.73364742 7.50000000 
1.20386730 110.51344309 7.50000000 
1.89943506 109.27779313 7.50000000 
1.17711469 108.05758880 7.50000000 
1.87268246 106.82193884 7.50000000 
1.15036209 105.60173451 7.50000000 
1.84592985 104.36608455 7.50000000 
1.12360948 103.14588022 7.50000000 
1.81917724 101.91023026 7.50000000 
1.09685687 100.69002593 7.50000000 
1.79242464 99.45437597 7.50000000 
1.07010427 98.23417164 7.50000000 
1.76567203 96.99852168 7.50000000 
1.04335166 95.77831734 7.50000000 
1.73891942 94.54266739 7.50000000 
1.01659905 93.32246305 7.50000000 
1.71216682 92.08681310 7.50000000 
0.98984645 90.86660876 7.50000000 
1.68541421 89.63095880 7.50000000 
0.96309384 88.41075447 7.50000000 
1.65866160 87.17510451 7.50000000 
0.93634123 85.95490018 7.50000000 
1.63190900 84.71925022 7.50000000 
0.90958863 83.49904589 7.50000000 
1.60515639 82.26339593 7.50000000 
0.88283602 81.04319160 7.50000000 
1.57840378 79.80754164 7.50000000 
0.85608341 78.58733731 7.50000000 
1.55165118 77.35168735 7.50000000 
0.82933081 76.13148302 7.50000000 
1.52489857 74.89583306 7.50000000 
0.80257820 73.67562873 7.50000000 
1.49814596 72.43997877 7.50000000 
0.77582559 71.21977444 7.50000000 
1.47139336 69.98412448 7.50000000 
0.74907299 68.76392014 7.50000000 
1.44464075 67.52827019 7.50000000 
0.72232038 66.30806585 7.50000000 
1.41788814 65.07241590 7.50000000 
0.69556777 63.85221156 7.50000000 
1.39113554 62.61656161 7.50000000 
0.66881517 61.39635727 7.50000000 
1.36438293 60.16070731 7.50000000 
0.64206256 58.94050298 7.50000000 
1.33763032 57.70485302 7.50000000 
0.61530995 56.48464869 7.50000000 
1.31087772 55.24899873 7.50000000 
0.58855735 54.02879440 7.50000000 
1.28412511 52.79314444 7.50000000 
0.56180474 51.57294011 7.50000000 
1.25737250 50.33729015 7.50000000 
0.53505213 49.11708582 7.50000000 
1.23061990 47.88143586 7.50000000 
0.50829953 46.66123153 7.50000000 
1.20386729 45.42558157 7.50000000 
0.48154692 44.20537724 7.50000000 
1.17711468 42.96972728 7.50000000 
0.45479431 41.74952294 7.50000000 
1.15036208 40.51387299 7.50000000 
0.42804171 39.29366865 7.50000000 
1.12360947 38.05801870 7.50000000 
0.40128910 36.83781436 7.50000000 
1.09685686 35.60216441 7.50000000 
0.37453649 34.38196007 7.50000000 
1.07010426 33.14631011 7.50000000 
0.34778389 31.92610578 7.50000000 
1.04335165 30.69045582 7.50000000 
0.32103128 29.47025149 7.50000000 
1.01659904 28.23460153 7.50000000 
0.29427867 27.01439720 7.50000000 
0.98984644 25.77874724 7.50000000 
0.26752607 24.55854291 7.50000000 
0.96309383 23.32289295 7.50000000 
0.24077346 22.10268862 7.50000000 
0.93634122 20.86703866 7.50000000 
0.21402085 19.64683433 7.50000000 
0.90958862 18.41118437 7.50000000 
0.18726825 17.19098004 7.50000000 
0.88283601 15.95533008 7.50000000 
0.16051564 14.73512575 7.50000000 
0.85608340 13.49947579 7.50000000 
0.13376303 12.27927145 7.50000000 
0.82933080 11.04362150 7.50000000 
0.10701043 9.82341716 7.50000000 
0.80257819 8.58776721 7.50000000 
0.08025782 7.36756287 7.50000000 
0.77582558 6.13191291 7.50000000 
0.05350521 4.91170858 7.50000000 
0.74907298 3.67605862 7.50000000 
0.02675261 2.45585429 7.50000000 
0.72232037 1.22020433 7.50000000 
0.00000000 0.00000000 7.50000000 
4.25366443 195.21724769 7.50000000 
4.94923220 193.98159773 7.50000000 
4.22691183 192.76139340 7.50000000 
4.92247959 191.52574344 7.50000000 
4.20015922 190.30553911 7.50000000 
4.89572698 189.06988915 7.50000000 
4.17340661 187.84968482 7.50000000 
4.86897438 186.61403486 7.50000000 
4.14665401 185.39383052 7.50000000 
4.84222177 184.15818057 7.50000000 
4.11990140 182.93797623 7.50000000 
4.81546916 181.70232628 7.50000000 
4.09314879 180.48212194 7.50000000 
4.78871656 179.24647198 7.50000000 
4.06639619 178.02626765 7.50000000 
4.76196395 176.79061769 7.50000000 
4.03964358 175.57041336 7.50000000 
4.73521134 174.33476340 7.50000000 
4.01289097 173.11455907 7.50000000 
4.70845874 171.87890911 7.50000000 
3.98613837 170.65870478 7.50000000 
4.68170613 169.42305482 7.50000000 
3.95938576 168.20285049 7.50000000 
4.65495352 166.96720053 7.50000000 
3.93263315 165.74699620 7.50000000 
4.62820092 164.51134624 7.50000000 
3.90588055 163.29114191 7.50000000 
4.60144831 162.05549195 7.50000000 
3.87912794 160.83528762 7.50000000 
4.57469570 159.59963766 7.50000000 
3.85237533 158.37943332 7.50000000 
4.54794310 157.14378337 7.50000000 
3.82562273 155.92357903 7.50000000 
4.52119049 154.68792908 7.50000000 
3.79887012 153.46772474 7.50000000 
4.49443788 152.23207479 7.50000000 
3.77211751 151.01187045 7.50000000 
4.46768528 149.77622049 7.50000000 
3.74536491 148.55601616 7.50000000 
4.44093267 147.32036620 7.50000000 
3.71861230 146.10016187 7.50000000 
4.41418006 144.86451191 7.50000000 
3.69185969 143.64430758 7.50000000 
4.38742746 142.40865762 7.50000000 
3.66510709 141.18845329 7.50000000 
4.36067485 139.95280333 7.50000000 
3.63835448 138.73259900 7.50000000 
4.33392224 137.49694904 7.50000000 
3.61160187 136.27674471 7.50000000 
4.30716964 135.04109475 7.50000000 
3.58484927 133.82089042 7.50000000 
4.28041703 132.58524046 7.50000000 
3.55809666 131.36503613 7.50000000 
4.25366442 130.12938617 7.50000000 
3.53134405 128.90918183 7.50000000 
4.22691182 127.67353188 7.50000000 
3.50459145 126.45332754 7.50000000 
4.20015921 125.21767759 7.50000000 
3.47783884 123.99747325 7.50000000 
4.17340660 122.76182329 7.50000000 
3.45108623 121.54161896 7.50000000 
4.14665400 120.30596900 7.50000000 
3.42433363 119.08576467 7.50000000 
4.11990139 117.85011471 7.50000000 
3.39758102 116.62991038 7.50000000 
4.09314878 115.39426042 7.50000000 
3.37082841 114.17405609 7.50000000 
4.06639618 112.93840613 7.50000000 
3.34407581 111.71820180 7.50000000 
4.03964357 110.48255184 7.50000000 
3.31732320 109.26234751 7.50000000 
4.01289096 108.02669755 7.50000000 
3.29057059 106.80649322 7.50000000 
3.98613836 105.57084326 7.50000000 
3.26381799 104.35063893 7.50000000 
3.95938575 103.11498897 7.50000000 
3.23706538 101.89478463 7.50000000 
3.93263314 100.65913468 7.50000000 
3.21031277 99.43893034 7.50000000 
3.90588054 98.20328039 7.50000000 
3.18356017 96.98307605 7.50000000 
3.87912793 95.74742610 7.50000000 
3.15680756 94.52722176 7.50000000 
3.85237532 93.29157180 7.50000000 
3.13005495 92.07136747 7.50000000 
3.82562272 90.83571751 7.50000000 
3.10330235 89.61551318 7.50000000 
3.79887011 88.37986322 7.50000000 
3.07654974 87.15965889 7.50000000 
3.77211750 85.92400893 7.50000000 
3.04979713 84.70380460 7.50000000 
3.74536490 83.46815464 7.50000000 
3.02304453 82.24795031 7.50000000 
3.71861229 81.01230035 7.50000000 
2.99629192 79.79209602 7.50000000 
3.69185968 78.55644606 7.50000000 
2.96953931 77.33624173 7.50000000 
3.66510708 76.10059177 7.50000000 
2.94278671 74.88038743 7.50000000 
3.63835447 73.64473748 7.50000000 
2.91603410 72.42453314 7.50000000 
3.61160186 71.18888319 7.50000000 
2.88928149 69.96867885 7.50000000 
3.58484926 68.73302890 7.50000000 
2.86252889 67.51282456 7.50000000 
3.55809665 66.27717460 7.50000000 
2.83577628 65.05697027 7.50000000 
3.53134404 63.82132031 7.50000000 
2.80902367 62.60111598 7.50000000 
3.50459144 61.36546602 7.50000000 
2.78227107 60.14526169 7.50000000 
3.47783883 58.90961173 7.50000000 
2.75551846 57.68940740 7.50000000 
3.45108622 56.45375744 7.50000000 
2.72876585 55.23355311 7.50000000 
3.42433362 53.99790315 7.50000000 
2.70201325 52.77769882 7.50000000 
3.39758101 51.54204886 7.50000000 
2.67526064 50.32184453 7.50000000 
3.37082840 49.08619457 7.50000000 
2.64850803 47.86599024 7.50000000 
3.34407580 46.63034028 7.50000000 
2.62175543 45.41013594 7.50000000 
3.31732319 44.17448599 7.50000000 
2.59500282 42.95428165 7.50000000 
3.29057058 41.71863170 7.50000000 
2.56825021 40.49842736 7.50000000 
3.26381798 39.26277740 7.50000000 
2.54149761 38.04257307 7.50000000 
3.23706537 36.80692311 7.50000000 
2.51474500 35.58671878 7.50000000 
3.21031276 34.35106882 7.50000000 
2.48799239 33.13086449 7.50000000 
3.18356016 31.89521453 7.50000000 
2.46123979 30.67501020 7.50000000 
3.15680755 29.43936024 7.50000000 
2.43448718 28.21915591 7.50000000 
3.13005494 26.98350595 7.50000000 
2.40773457 25.76330162 7.50000000 
3.10330234 24.52765166 7.50000000 
2.38098197 23.30744733 7.50000000 
3.07654973 22.07179737 7.50000000 
2.35422936 20.85159304 7.50000000 
3.04979713 19.61594308 7.50000000 
2.32747675 18.39573874 7.50000000 
3.02304452 17.16008879 7.50000000 
2.30072415 15.93988445 7.50000000 
2.99629191 14.70423450 7.50000000 
2.27397154 13.48403016 7.50000000 
2.96953931 12.24838021 7.50000000 
2.24721893 11.02817587 7.50000000 
2.94278670 9.79252591 7.50000000 
2.22046633 8.57232158 7.50000000 
2.91603409 7.33667162 7.50000000 
2.19371372 6.11646729 7.50000000 
2.88928149 4.88081733 7.50000000 
2.16696111 3.66061300 7.50000000 
2.86252888 2.42496304 7.50000000 
2.14020851 1.20475871 7.50000000 
7.08944070 195.18635644 7.50000000 
6.36712033 193.96615211 7.50000000 
7.06268810 192.73050215 7.50000000 
6.34036773 191.51029781 7.50000000 
7.03593549 190.27464786 7.50000000 
6.31361512 189.05444352 7.50000000 
7.00918288 187.81879357 7.50000000 
6.28686251 186.59858923 7.50000000 
6.98243028 185.36293928 7.50000000 
6.26010991 184.14273494 7.50000000 
6.95567767 182.90708498 7.50000000 
6.23335730 181.68688065 7.50000000 
6.92892506 180.45123069 7.50000000 
6.20660469 179.23102636 7.50000000 
6.90217246 177.99537640 7.50000000 
6.17985209 176.77517207 7.50000000 
6.87541985 175.53952211 7.50000000 
6.15309948 174.31931778 7.50000000 
6.84866724 173.08366782 7.50000000 
6.12634687 171.86346349 7.50000000 
6.82191464 170.62781353 7.50000000 
6.09959427 169.40760920 7.50000000 
6.79516203 168.17195924 7.50000000 
6.07284166 166.95175491 7.50000000 
6.76840942 165.71610495 7.50000000 
6.04608905 164.49590062 7.50000000 
6.74165682 163.26025066 7.50000000 
6.01933645 162.04004632 7.50000000 
6.71490421 160.80439637 7.50000000 
5.99258384 159.58419203 7.50000000 
6.68815160 158.34854208 7.50000000 
5.96583123 157.12833774 7.50000000 
6.66139900 155.89268778 7.50000000 
5.93907863 154.67248345 7.50000000 
6.63464639 153.43683349 7.50000000 
5.91232602 152.21662916 7.50000000 
6.60789378 150.98097920 7.50000000 
5.88557341 149.76077487 7.50000000 
6.58114118 148.52512491 7.50000000 
5.85882081 147.30492058 7.50000000 
6.55438857 146.06927062 7.50000000 
5.83206820 144.84906629 7.50000000 
6.52763596 143.61341633 7.50000000 
5.80531559 142.39321200 7.50000000 
6.50088336 141.15756204 7.50000000 
5.77856299 139.93735771 7.50000000 
6.47413075 138.70170775 7.50000000 
5.75181038 137.48150342 7.50000000 
6.44737814 136.24585346 7.50000000 
5.72505777 135.02564912 7.50000000 
6.42062554 133.78999917 7.50000000 
5.69830517 132.56979483 7.50000000 
6.39387293 131.33414488 7.50000000 
5.67155256 130.11394054 7.50000000 
6.36712032 128.87829058 7.50000000 
5.64479995 127.65808625 7.50000000 
6.34036772 126.42243629 7.50000000 
5.61804735 125.20223196 7.50000000 
6.31361511 123.96658200 7.50000000 
5.59129474 122.74637767 7.50000000 
6.28686250 121.51072771 7.50000000 
5.56454213 120.29052338 7.50000000 
6.26010990 119.05487342 7.50000000 
5.53778953 117.83466909 7.50000000 
6.23335729 116.59901913 7.50000000 
5.51103692 115.37881480 7.50000000 
6.20660468 114.14316484 7.50000000 
5.48428431 112.92296051 7.50000000 
6.17985208 111.68731055 7.50000000 
5.45753171 110.46710622 7.50000000 
6.15309947 109.23145626 7.50000000 
5.43077910 108.01125192 7.50000000 
6.12634686 106.77560197 7.50000000 
5.40402649 105.55539763 7.50000000 
6.09959426 104.31974768 7.50000000 
5.37727389 103.09954334 7.50000000 
6.07284165 101.86389339 7.50000000 
5.35052128 100.64368905 7.50000000 
6.04608905 99.40803909 7.50000000 
5.32376867 98.18783476 7.50000000 
6.01933644 96.95218480 7.50000000 
5.29701607 95.73198047 7.50000000 
5.99258383 94.49633051 7.50000000 
5.27026346 93.27612618 7.50000000 
5.96583123 92.04047622 7.50000000 
5.24351085 90.82027189 7.50000000 
5.93907862 89.58462193 7.50000000 
5.21675825 88.36441760 7.50000000 
5.91232601 87.12876764 7.50000000 
5.19000564 85.90856331 7.50000000 
5.88557341 84.67291335 7.50000000 
5.16325303 83.45270902 7.50000000 
5.85882080 82.21705906 7.50000000 
5.13650043 80.99685473 7.50000000 
5.83206819 79.76120477 7.50000000 
5.10974782 78.54100043 7.50000000 
5.80531559 77.30535048 7.50000000 
5.08299521 76.08514614 7.50000000 
5.77856298 74.84949619 7.50000000 
5.05624261 73.62929185 7.50000000 
5.75181037 72.39364189 7.50000000 
5.02949000 71.17343756 7.50000000 
5.72505777 69.93778760 7.50000000 
5.00273739 68.71758327 7.50000000 
5.69830516 67.48193331 7.50000000 
4.97598479 66.26172898 7.50000000 
5.67155255 65.02607902 7.50000000 
4.94923218 63.80587469 7.50000000 
5.64479995 62.57022473 7.50000000 
4.92247957 61.35002040 7.50000000 
5.61804734 60.11437044 7.50000000 
4.89572697 58.89416611 7.50000000 
5.59129473 57.65851615 7.50000000 
4.86897436 56.43831182 7.50000000 
5.56454213 55.20266186 7.50000000 
4.84222175 53.98245753 7.50000000 
5.53778952 52.74680757 7.50000000 
4.81546915 51.52660323 7.50000000 
5.51103691 50.29095328 7.50000000 
4.78871654 49.07074894 7.50000000 
5.48428431 47.83509899 7.50000000 
4.76196393 46.61489465 7.50000000 
5.45753170 45.37924470 7.50000000 
4.73521133 44.15904036 7.50000000 
5.43077909 42.92339040 7.50000000 
4.70845872 41.70318607 7.50000000 
5.40402649 40.46753611 7.50000000 
4.68170611 39.24733178 7.50000000 
5.37727388 38.01168182 7.50000000 
4.65495351 36.79147749 7.50000000 
5.35052127 35.55582753 7.50000000 
4.62820090 34.33562320 7.50000000 
5.32376867 33.09997324 7.50000000 
4.60144829 31.87976891 7.50000000 
5.29701606 30.64411895 7.50000000 
4.57469569 29.42391462 7.50000000 
5.27026345 28.18826466 7.50000000 
4.54794308 26.96806033 7.50000000 
5.24351085 25.73241037 7.50000000 
4.52119047 24.51220603 7.50000000 
5.21675824 23.27655608 7.50000000 
4.49443787 22.05635174 7.50000000 
5.19000563 20.82070179 7.50000000 
4.46768526 19.60049745 7.50000000 
5.16325303 18.36484750 7.50000000 
4.44093265 17.14464316 7.50000000 
5.13650042 15.90899320 7.50000000 
4.41418005 14.68878887 7.50000000 
5.10974781 13.45313891 7.50000000 
4.38742744 12.23293458 7.50000000 
5.08299521 10.99728462 7.50000000 
4.36067483 9.77708029 7.50000000 
5.05624260 8.54143033 7.50000000 
4.33392223 7.32122600 7.50000000 
5.02948999 6.08557604 7.50000000 
4.30716962 4.86537171 7.50000000 
5.00273739 3.62972175 7.50000000 
4.28041701 2.40951742 7.50000000 
4.97598478 1.17386746 7.50000000 
8.50732884 195.17091081 7.50000000 
9.20289660 193.93526086 7.50000000 
8.48057623 192.71505652 7.50000000 
9.17614400 191.47940657 7.50000000 
8.45382363 190.25920223 7.50000000 
9.14939139 189.02355227 7.50000000 
8.42707102 187.80334794 7.50000000 
9.12263878 186.56769798 7.50000000 
8.40031841 185.34749365 7.50000000 
9.09588618 184.11184369 7.50000000 
8.37356581 182.89163936 7.50000000 
9.06913357 181.65598940 7.50000000 
8.34681320 180.43578507 7.50000000 
9.04238096 179.20013511 7.50000000 
8.32006059 177.97993078 7.50000000 
9.01562836 176.74428082 7.50000000 
8.29330799 175.52407649 7.50000000 
8.98887575 174.28842653 7.50000000 
8.26655538 173.06822220 7.50000000 
8.96212315 171.83257224 7.50000000 
8.23980277 170.61236791 7.50000000 
8.93537054 169.37671795 7.50000000 
8.21305017 168.15651361 7.50000000 
8.90861793 166.92086366 7.50000000 
8.18629756 165.70065932 7.50000000 
8.88186533 164.46500937 7.50000000 
8.15954495 163.24480503 7.50000000 
8.85511272 162.00915507 7.50000000 
8.13279235 160.78895074 7.50000000 
8.82836011 159.55330078 7.50000000 
8.10603974 158.33309645 7.50000000 
8.80160751 157.09744649 7.50000000 
8.07928713 155.87724216 7.50000000 
8.77485490 154.64159220 7.50000000 
8.05253453 153.42138787 7.50000000 
8.74810229 152.18573791 7.50000000 
8.02578192 150.96553358 7.50000000 
8.72134969 149.72988362 7.50000000 
7.99902931 148.50967929 7.50000000 
8.69459708 147.27402933 7.50000000 
7.97227671 146.05382500 7.50000000 
8.66784447 144.81817504 7.50000000 
7.94552410 143.59797071 7.50000000 
8.64109187 142.36232075 7.50000000 
7.91877149 141.14211641 7.50000000 
8.61433926 139.90646646 7.50000000 
7.89201889 138.68626212 7.50000000 
8.58758665 137.45061217 7.50000000 
7.86526628 136.23040783 7.50000000 
8.56083405 134.99475788 7.50000000 
7.83851367 133.77455354 7.50000000 
8.53408144 132.53890358 7.50000000 
7.81176107 131.31869925 7.50000000 
8.50732883 130.08304929 7.50000000 
7.78500846 128.86284496 7.50000000 
8.48057623 127.62719500 7.50000000 
7.75825585 126.40699067 7.50000000 
8.45382362 125.17134071 7.50000000 
7.73150325 123.95113638 7.50000000 
8.42707101 122.71548642 7.50000000 
7.70475064 121.49528209 7.50000000 
8.40031841 120.25963213 7.50000000 
7.67799803 119.03942780 7.50000000 
8.37356580 117.80377784 7.50000000 
7.65124543 116.58357351 7.50000000 
8.34681319 115.34792355 7.50000000 
7.62449282 114.12771922 7.50000000 
8.32006059 112.89206926 7.50000000 
7.59774021 111.67186492 7.50000000 
8.29330798 110.43621497 7.50000000 
7.57098761 109.21601063 7.50000000 
8.26655537 107.98036068 7.50000000 
7.54423500 106.76015634 7.50000000 
8.23980277 105.52450638 7.50000000 
7.51748239 104.30430205 7.50000000 
8.21305016 103.06865209 7.50000000 
7.49072979 101.84844776 7.50000000 
8.18629755 100.61279780 7.50000000 
7.46397718 99.39259347 7.50000000 
8.15954495 98.15694351 7.50000000 
7.43722457 96.93673918 7.50000000 
8.13279234 95.70108922 7.50000000 
7.41047197 94.48088489 7.50000000 
8.10603973 93.24523493 7.50000000 
7.38371936 92.02503060 7.50000000 
8.07928713 90.78938064 7.50000000 
7.35696675 89.56917631 7.50000000 
8.05253452 88.33352635 7.50000000 
7.33021415 87.11332202 7.50000000 
8.02578191 85.87767206 7.50000000 
7.30346154 84.65746772 7.50000000 
7.99902931 83.42181777 7.50000000 
7.27670893 82.20161343 7.50000000 
7.97227670 80.96596348 7.50000000 
7.24995633 79.74575914 7.50000000 
7.94552409 78.51010918 7.50000000 
7.22320372 77.28990485 7.50000000 
7.91877149 76.05425489 7.50000000 
7.19645111 74.83405056 7.50000000 
7.89201888 73.59840060 7.50000000 
7.16969851 72.37819627 7.50000000 
7.86526627 71.14254631 7.50000000 
7.14294590 69.92234198 7.50000000 
7.83851367 68.68669202 7.50000000 
7.11619329 67.46648769 7.50000000 
7.81176106 66.23083773 7.50000000 
7.08944069 65.01063340 7.50000000 
7.78500845 63.77498344 7.50000000 
7.06268808 62.55477911 7.50000000 
7.75825585 61.31912915 7.50000000 
7.03593547 60.09892482 7.50000000 
7.73150324 58.86327486 7.50000000 
7.00918287 57.64307052 7.50000000 
7.70475063 56.40742057 7.50000000 
6.98243026 55.18721623 7.50000000 
7.67799803 53.95156628 7.50000000 
6.95567765 52.73136194 7.50000000 
7.65124542 51.49571199 7.50000000 
6.92892505 50.27550765 7.50000000 
7.62449281 49.03985769 7.50000000 
6.90217244 47.81965336 7.50000000 
7.59774021 46.58400340 7.50000000 
6.87541983 45.36379907 7.50000000 
7.57098760 44.12814911 7.50000000 
6.84866723 42.90794478 7.50000000 
7.54423499 41.67229482 7.50000000 
6.82191462 40.45209049 7.50000000 
7.51748239 39.21644053 7.50000000 
6.79516201 37.99623620 7.50000000 
7.49072978 36.76058624 7.50000000 
6.76840941 35.54038191 7.50000000 
7.46397717 34.30473195 7.50000000 
6.74165680 33.08452762 7.50000000 
7.43722457 31.84887766 7.50000000 
6.71490419 30.62867333 7.50000000 
7.41047196 29.39302337 7.50000000 
6.68815159 28.17281903 7.50000000 
7.38371935 26.93716908 7.50000000 
6.66139898 25.71696474 7.50000000 
7.35696675 24.48131479 7.50000000 
6.63464637 23.26111045 7.50000000 
7.33021414 22.02546049 7.50000000 
6.60789377 20.80525616 7.50000000 
7.30346153 19.56960620 7.50000000 
6.58114116 18.34940187 7.50000000 
7.27670893 17.11375191 7.50000000 
6.55438855 15.89354758 7.50000000 
7.24995632 14.65789762 7.50000000 
6.52763595 13.43769329 7.50000000 
7.22320371 12.20204333 7.50000000 
6.50088334 10.98183900 7.50000000 
7.19645111 9.74618904 7.50000000 
6.47413073 8.52598471 7.50000000 
7.16969850 7.29033475 7.50000000 
6.44737813 6.07013042 7.50000000 
7.14294589 4.83448046 7.50000000 
6.42062552 3.61427613 7.50000000 
7.11619329 2.37862617 7.50000000 
6.39387292 1.15842183 7.50000000 
11.34310511 195.14001956 7.50000000 
10.62078474 193.91981523 7.50000000 
11.31635251 192.68416527 7.50000000 
10.59403213 191.46396094 7.50000000 
11.28959990 190.22831098 7.50000000 
10.56727953 189.00810665 7.50000000 
11.26284729 187.77245669 7.50000000 
10.54052692 186.55225236 7.50000000 
11.23609469 185.31660240 7.50000000 
10.51377431 184.09639807 7.50000000 
11.20934208 182.86074811 7.50000000 
10.48702171 181.64054378 7.50000000 
11.18258947 180.40489382 7.50000000 
10.46026910 179.18468949 7.50000000 
11.15583687 177.94903953 7.50000000 
10.43351649 176.72883520 7.50000000 
11.12908426 175.49318524 7.50000000 
10.40676389 174.27298090 7.50000000 
11.10233165 173.03733095 7.50000000 
10.38001128 171.81712661 7.50000000 
11.07557905 170.58147666 7.50000000 
10.35325867 169.36127232 7.50000000 
11.04882644 168.12562237 7.50000000 
10.32650607 166.90541803 7.50000000 
11.02207383 165.66976807 7.50000000 
10.29975346 164.44956374 7.50000000 
10.99532123 163.21391378 7.50000000 
10.27300085 161.99370945 7.50000000 
10.96856862 160.75805949 7.50000000 
10.24624825 159.53785516 7.50000000 
10.94181601 158.30220520 7.50000000 
10.21949564 157.08200087 7.50000000 
10.91506341 155.84635091 7.50000000 
10.19274303 154.62614658 7.50000000 
10.88831080 153.39049662 7.50000000 
10.16599043 152.17029229 7.50000000 
10.86155819 150.93464233 7.50000000 
10.13923782 149.71443800 7.50000000 
10.83480559 148.47878804 7.50000000 
10.11248521 147.25858370 7.50000000 
10.80805298 146.02293375 7.50000000 
10.08573261 144.80272941 7.50000000 
10.78130037 143.56707946 7.50000000 
10.05898000 142.34687512 7.50000000 
10.75454777 141.11122517 7.50000000 
10.03222739 139.89102083 7.50000000 
10.72779516 138.65537087 7.50000000 
10.00547479 137.43516654 7.50000000 
10.70104255 136.19951658 7.50000000 
9.97872218 134.97931225 7.50000000 
10.67428995 133.74366229 7.50000000 
9.95196957 132.52345796 7.50000000 
10.64753734 131.28780800 7.50000000 
9.92521697 130.06760367 7.50000000 
10.62078473 128.83195371 7.50000000 
9.89846436 127.61174938 7.50000000 
10.59403213 126.37609942 7.50000000 
9.87171175 125.15589509 7.50000000 
10.56727952 123.92024513 7.50000000 
9.84495915 122.70004080 7.50000000 
10.54052691 121.46439084 7.50000000 
9.81820654 120.24418651 7.50000000 
10.51377431 119.00853655 7.50000000 
9.79145393 117.78833221 7.50000000 
10.48702170 116.55268226 7.50000000 
9.76470133 115.33247792 7.50000000 
10.46026909 114.09682797 7.50000000 
9.73794872 112.87662363 7.50000000 
10.43351649 111.64097367 7.50000000 
9.71119611 110.42076934 7.50000000 
10.40676388 109.18511938 7.50000000 
9.68444351 107.96491505 7.50000000 
10.38001127 106.72926509 7.50000000 
9.65769090 105.50906076 7.50000000 
10.35325867 104.27341080 7.50000000 
9.63093829 103.05320647 7.50000000 
10.32650606 101.81755651 7.50000000 
9.60418569 100.59735218 7.50000000 
10.29975345 99.36170222 7.50000000 
9.57743308 98.14149789 7.50000000 
10.27300085 96.90584793 7.50000000 
9.55068047 95.68564360 7.50000000 
10.24624824 94.44999364 7.50000000 
9.52392787 93.22978931 7.50000000 
10.21949563 91.99413935 7.50000000 
9.49717526 90.77393501 7.50000000 
10.19274303 89.53828506 7.50000000 
9.47042265 88.31808072 7.50000000 
10.16599042 87.08243077 7.50000000 
9.44367005 85.86222643 7.50000000 
10.13923781 84.62657648 7.50000000 
9.41691744 83.40637214 7.50000000 
10.11248521 82.17072218 7.50000000 
9.39016483 80.95051785 7.50000000 
10.08573260 79.71486789 7.50000000 
9.36341223 78.49466356 7.50000000 
10.05897999 77.25901360 7.50000000 
9.33665962 76.03880927 7.50000000 
10.03222739 74.80315931 7.50000000 
9.30990702 73.58295498 7.50000000 
10.00547478 72.34730502 7.50000000 
9.28315441 71.12710069 7.50000000 
9.97872217 69.89145073 7.50000000 
9.25640180 68.67124640 7.50000000 
9.95196957 67.43559644 7.50000000 
9.22964920 66.21539211 7.50000000 
9.92521696 64.97974215 7.50000000 
9.20289659 63.75953781 7.50000000 
9.89846435 62.52388786 7.50000000 
9.17614398 61.30368352 7.50000000 
9.87171175 60.06803357 7.50000000 
9.14939138 58.84782923 7.50000000 
9.84495914 57.61217928 7.50000000 
9.12263877 56.39197494 7.50000000 
9.81820653 55.15632498 7.50000000 
9.09588616 53.93612065 7.50000000 
9.79145393 52.70047069 7.50000000 
9.06913356 51.48026636 7.50000000 
9.76470132 50.24461640 7.50000000 
9.04238095 49.02441207 7.50000000 
9.73794871 47.78876211 7.50000000 
9.01562834 46.56855778 7.50000000 
9.71119611 45.33290782 7.50000000 
8.98887574 44.11270349 7.50000000 
9.68444350 42.87705353 7.50000000 
8.96212313 41.65684920 7.50000000 
9.65769089 40.42119924 7.50000000 
8.93537052 39.20099491 7.50000000 
9.63093829 37.96534495 7.50000000 
8.90861792 36.74514062 7.50000000 
9.60418568 35.50949066 7.50000000 
8.88186531 34.28928632 7.50000000 
9.57743307 33.05363637 7.50000000 
8.85511270 31.83343203 7.50000000 
9.55068047 30.59778208 7.50000000 
8.82836010 29.37757774 7.50000000 
9.52392786 28.14192778 7.50000000 
8.80160749 26.92172345 7.50000000 
9.49717525 25.68607349 7.50000000 
8.77485488 24.46586916 7.50000000 
9.47042265 23.23021920 7.50000000 
8.74810228 22.01001487 7.50000000 
9.44367004 20.77436491 7.50000000 
8.72134967 19.55416058 7.50000000 
9.41691743 18.31851062 7.50000000 
8.69459706 17.09830629 7.50000000 
9.39016483 15.86265633 7.50000000 
8.66784446 14.64245200 7.50000000 
9.36341222 13.40680204 7.50000000 
8.64109185 12.18659771 7.50000000 
9.33665961 10.95094775 7.50000000 
8.61433924 9.73074342 7.50000000 
9.30990701 8.49509346 7.50000000 
8.58758664 7.27488912 7.50000000 
9.28315440 6.03923917 7.50000000 
8.56083403 4.81903483 7.50000000 
9.25640179 3.58338488 7.50000000 
8.53408142 2.36318054 7.50000000 
9.22964919 1.12753059 7.50000000 
12.76099325 195.12457394 7.50000000 
13.45656101 193.88892398 7.50000000 
12.73424064 192.66871965 7.50000000 
13.42980841 191.43306969 7.50000000 
12.70748803 190.21286536 7.50000000 
13.40305580 188.97721540 7.50000000 
12.68073543 187.75701107 7.50000000 
13.37630319 186.52136111 7.50000000 
12.65398282 185.30115678 7.50000000 
13.34955059 184.06550682 7.50000000 
12.62723021 182.84530249 7.50000000 
13.32279798 181.60965253 7.50000000 
12.60047761 180.38944819 7.50000000 
13.29604537 179.15379824 7.50000000 
12.57372500 177.93359390 7.50000000 