written by TR 
1.000000000 
6.497965220 0.000000000 0.000000000 
3.248982610 5.627402953 0.000000000 
0.000000000 0.000000000 18.400000000 
Type1 
28
Cartesian 
0.92828075 1.07188628 7.50000000 
0.00000000 0.00000000 7.50000000 
3.71312298 4.28754511 7.50000000 
2.78484224 3.21565883 7.50000000 
3.24898261 1.87580098 7.50000000 
2.32070186 0.80391471 7.50000000 
6.03382485 5.09145981 7.50000000 
5.10554410 4.01957354 7.50000000 
5.56968447 2.67971569 7.50000000 
4.64140373 1.60782942 7.50000000 
5.10554410 0.26797157 7.50000000 
0.00000000 0.00000000 10.90000000 
2.32070186 2.94768726 10.90000000 
1.85656149 1.60782942 10.90000000 
2.78484224 0.53594314 10.90000000 
4.17726336 4.55551668 10.90000000 
3.71312298 3.21565883 10.90000000 
4.64140373 2.14377255 10.90000000 
4.17726336 0.80391471 10.90000000 
5.56968447 4.82348825 10.90000000 
6.03382485 2.41174412 10.90000000 
7.42624597 4.82348825 7.50000000 
7.89038634 3.48363040 7.50000000 
6.96210559 2.41174412 7.50000000 
6.49796522 3.75160197 10.90000000 
6.96210559 1.33985785 10.90000000 
8.35452671 5.35943138 10.90000000 
7.89038634 4.01957354 10.90000000 
