written by TR 
1.000000000 
112.735482000 0.000000000 0.000000000 
56.367741000 97.631791320 0.000000000 
0.000000000 0.000000000 18.400000000 
Type1 
8428
Cartesian 
0.72232037 1.22020433 7.50000000 
0.00000000 0.00000000 7.50000000 
2.88928149 4.88081733 7.50000000 
2.16696111 3.66061300 7.50000000 
2.86252888 2.42496304 7.50000000 
2.14020851 1.20475871 7.50000000 
5.05624260 8.54143033 7.50000000 
4.33392223 7.32122600 7.50000000 
5.02948999 6.08557604 7.50000000 
4.30716962 4.86537171 7.50000000 
5.00273739 3.62972175 7.50000000 
4.28041701 2.40951742 7.50000000 
4.97598478 1.17386746 7.50000000 
7.22320371 12.20204333 7.50000000 
6.50088334 10.98183900 7.50000000 
7.19645111 9.74618904 7.50000000 
6.47413073 8.52598471 7.50000000 
7.16969850 7.29033475 7.50000000 
6.44737813 6.07013042 7.50000000 
7.14294589 4.83448046 7.50000000 
6.42062552 3.61427613 7.50000000 
7.11619329 2.37862617 7.50000000 
6.39387292 1.15842183 7.50000000 
9.39016483 15.86265633 7.50000000 
8.66784446 14.64245200 7.50000000 
9.36341222 13.40680204 7.50000000 
8.64109185 12.18659771 7.50000000 
9.33665961 10.95094775 7.50000000 
8.61433924 9.73074342 7.50000000 
9.30990701 8.49509346 7.50000000 
8.58758664 7.27488912 7.50000000 
9.28315440 6.03923917 7.50000000 
8.56083403 4.81903483 7.50000000 
9.25640179 3.58338488 7.50000000 
8.53408142 2.36318054 7.50000000 
9.22964919 1.12753059 7.50000000 
11.55712594 19.52326933 7.50000000 
10.83480557 18.30306500 7.50000000 
11.53037333 17.06741504 7.50000000 
10.80805296 15.84721071 7.50000000 
11.50362073 14.61156075 7.50000000 
10.78130036 13.39135641 7.50000000 
11.47686812 12.15570646 7.50000000 
10.75454775 10.93550212 7.50000000 
11.45011551 9.69985217 7.50000000 
10.72779514 8.47964783 7.50000000 
11.42336291 7.24399788 7.50000000 
10.70104254 6.02379354 7.50000000 
11.39661030 4.78814358 7.50000000 
10.67428993 3.56793925 7.50000000 
11.36985769 2.33228929 7.50000000 
10.64753732 1.11208496 7.50000000 
13.72408705 23.18388233 7.50000000 
13.00176668 21.96367800 7.50000000 
13.69733445 20.72802804 7.50000000 
12.97501408 19.50782371 7.50000000 
13.67058184 18.27217375 7.50000000 
12.94826147 17.05196941 7.50000000 
13.64382923 15.81631946 7.50000000 
12.92150886 14.59611512 7.50000000 
13.61707663 13.36046517 7.50000000 
12.89475626 12.14026083 7.50000000 
13.59032402 10.90461087 7.50000000 
12.86800365 9.68440654 7.50000000 
13.56357141 8.44875658 7.50000000 
12.84125104 7.22855225 7.50000000 
13.53681881 5.99290229 7.50000000 
12.81449844 4.77269796 7.50000000 
13.51006620 3.53704800 7.50000000 
12.78774583 2.31684367 7.50000000 
13.48331359 1.08119371 7.50000000 
15.89104817 26.84449533 7.50000000 
15.16872780 25.62429100 7.50000000 
15.86429556 24.38864104 7.50000000 
15.14197519 23.16843670 7.50000000 
15.83754296 21.93278675 7.50000000 
15.11522258 20.71258241 7.50000000 
15.81079035 19.47693246 7.50000000 
15.08846998 18.25672812 7.50000000 
15.78403774 17.02107817 7.50000000 
15.06171737 15.80087383 7.50000000 
15.75728514 14.56522387 7.50000000 
15.03496476 13.34501954 7.50000000 
15.73053253 12.10936958 7.50000000 
15.00821216 10.88916525 7.50000000 
15.70377992 9.65351529 7.50000000 
14.98145955 8.43331096 7.50000000 
15.67702732 7.19766100 7.50000000 
14.95470694 5.97745667 7.50000000 
15.65027471 4.74180671 7.50000000 
14.92795434 3.52160238 7.50000000 
15.62352210 2.28595242 7.50000000 
14.90120173 1.06574809 7.50000000 
18.05800928 30.50510833 7.50000000 
17.33568891 29.28490399 7.50000000 
18.03125668 28.04925404 7.50000000 
17.30893630 26.82904970 7.50000000 
18.00450407 25.59339975 7.50000000 
17.28218370 24.37319541 7.50000000 
17.97775146 23.13754546 7.50000000 
17.25543109 21.91734112 7.50000000 
17.95099886 20.68169116 7.50000000 
17.22867848 19.46148683 7.50000000 
17.92424625 18.22583687 7.50000000 
17.20192588 17.00563254 7.50000000 
17.89749364 15.76998258 7.50000000 
17.17517327 14.54977825 7.50000000 
17.87074104 13.31412829 7.50000000 
17.14842066 12.09392396 7.50000000 
17.84398843 10.85827400 7.50000000 
17.12166806 9.63806967 7.50000000 
17.81723582 8.40241971 7.50000000 
17.09491545 7.18221538 7.50000000 
17.79048322 5.94656542 7.50000000 
17.06816284 4.72636109 7.50000000 
17.76373061 3.49071113 7.50000000 
17.04141024 2.27050680 7.50000000 
17.73697800 1.03485684 7.50000000 
20.22497040 34.16572133 7.50000000 
19.50265002 32.94551699 7.50000000 
20.19821779 31.70986704 7.50000000 
19.47589742 30.48966270 7.50000000 
20.17146518 29.25401275 7.50000000 
19.44914481 28.03380841 7.50000000 
20.14471258 26.79815845 7.50000000 
19.42239220 25.57795412 7.50000000 
20.11795997 24.34230416 7.50000000 
19.39563960 23.12209983 7.50000000 
20.09120736 21.88644987 7.50000000 
19.36888699 20.66624554 7.50000000 
20.06445476 19.43059558 7.50000000 
19.34213438 18.21039125 7.50000000 
20.03770215 16.97474129 7.50000000 
19.31538178 15.75453696 7.50000000 
20.01094954 14.51888700 7.50000000 
19.28862917 13.29868267 7.50000000 
19.98419694 12.06303271 7.50000000 
19.26187656 10.84282838 7.50000000 
19.95744433 9.60717842 7.50000000 
19.23512396 8.38697409 7.50000000 
19.93069172 7.15132413 7.50000000 
19.20837135 5.93111979 7.50000000 
19.90393912 4.69546984 7.50000000 
19.18161875 3.47526550 7.50000000 
19.87718651 2.23961555 7.50000000 
19.15486614 1.01941121 7.50000000 
22.39193151 37.82633433 7.50000000 
21.66961114 36.60612999 7.50000000 
22.36517890 35.37048004 7.50000000 
21.64285853 34.15027570 7.50000000 
22.33842630 32.91462574 7.50000000 
21.61610593 31.69442141 7.50000000 
22.31167369 30.45877145 7.50000000 
21.58935332 29.23856712 7.50000000 
22.28492108 28.00291716 7.50000000 
21.56260071 26.78271283 7.50000000 
22.25816848 25.54706287 7.50000000 
21.53584811 24.32685854 7.50000000 
22.23141587 23.09120858 7.50000000 
21.50909550 21.87100425 7.50000000 
22.20466326 20.63535429 7.50000000 
21.48234289 19.41514996 7.50000000 
22.17791066 18.17950000 7.50000000 
21.45559029 16.95929567 7.50000000 
22.15115805 15.72364571 7.50000000 
21.42883768 14.50344138 7.50000000 
22.12440544 13.26779142 7.50000000 
21.40208507 12.04758708 7.50000000 
22.09765284 10.81193713 7.50000000 
21.37533247 9.59173279 7.50000000 
22.07090023 8.35608284 7.50000000 
21.34857986 7.13587850 7.50000000 
22.04414762 5.90022855 7.50000000 
21.32182725 4.68002421 7.50000000 
22.01739502 3.44437425 7.50000000 
21.29507465 2.22416992 7.50000000 
21.99064241 0.98851996 7.50000000 
24.55889262 41.48694733 7.50000000 
23.83657225 40.26674299 7.50000000 
24.53214002 39.03109304 7.50000000 
23.80981965 37.81088870 7.50000000 
24.50538741 36.57523874 7.50000000 
23.78306704 35.35503441 7.50000000 
24.47863480 34.11938445 7.50000000 
23.75631443 32.89918012 7.50000000 
24.45188220 31.66353016 7.50000000 
23.72956183 30.44332583 7.50000000 
24.42512959 29.20767587 7.50000000 
23.70280922 27.98747154 7.50000000 
24.39837698 26.75182158 7.50000000 
23.67605661 25.53161725 7.50000000 
24.37162438 24.29596729 7.50000000 
23.64930401 23.07576296 7.50000000 
24.34487177 21.84011300 7.50000000 
23.62255140 20.61990867 7.50000000 
24.31811916 19.38425871 7.50000000 
23.59579879 18.16405437 7.50000000 
24.29136656 16.92840442 7.50000000 
23.56904619 15.70820008 7.50000000 
24.26461395 14.47255013 7.50000000 
23.54229358 13.25234579 7.50000000 
24.23786134 12.01669584 7.50000000 
23.51554097 10.79649150 7.50000000 
24.21110874 9.56084154 7.50000000 
23.48878837 8.34063721 7.50000000 
24.18435613 7.10498725 7.50000000 
23.46203576 5.88478292 7.50000000 
24.15760352 4.64913296 7.50000000 
23.43528315 3.42892863 7.50000000 
24.13085092 2.19327867 7.50000000 
23.40853055 0.97307434 7.50000000 
26.72585374 45.14756033 7.50000000 
26.00353337 43.92735599 7.50000000 
26.69910113 42.69170603 7.50000000 
25.97678076 41.47150170 7.50000000 
26.67234852 40.23585174 7.50000000 
25.95002815 39.01564741 7.50000000 
26.64559592 37.77999745 7.50000000 
25.92327555 36.55979312 7.50000000 
26.61884331 35.32414316 7.50000000 
25.89652294 34.10393883 7.50000000 
26.59209070 32.86828887 7.50000000 
25.86977033 31.64808454 7.50000000 
26.56533810 30.41243458 7.50000000 
25.84301773 29.19223025 7.50000000 
26.53858549 27.95658029 7.50000000 
25.81626512 26.73637596 7.50000000 
26.51183288 25.50072600 7.50000000 
25.78951251 24.28052167 7.50000000 
26.48508028 23.04487171 7.50000000 
25.76275991 21.82466737 7.50000000 
26.45832767 20.58901742 7.50000000 
25.73600730 19.36881308 7.50000000 
26.43157506 18.13316313 7.50000000 
25.70925469 16.91295879 7.50000000 
26.40482246 15.67730883 7.50000000 
25.68250209 14.45710450 7.50000000 
26.37806985 13.22145454 7.50000000 
25.65574948 12.00125021 7.50000000 
26.35131724 10.76560025 7.50000000 
25.62899687 9.54539592 7.50000000 
26.32456464 8.30974596 7.50000000 
25.60224427 7.08954163 7.50000000 
26.29781203 5.85389167 7.50000000 
25.57549166 4.63368734 7.50000000 
26.27105942 3.39803738 7.50000000 
25.54873905 2.17783305 7.50000000 
26.24430682 0.94218309 7.50000000 
28.89281485 48.80817332 7.50000000 
28.17049448 47.58796899 7.50000000 
28.86606224 46.35231903 7.50000000 
28.14374187 45.13211470 7.50000000 
28.83930964 43.89646474 7.50000000 
28.11698927 42.67626041 7.50000000 
28.81255703 41.44061045 7.50000000 
28.09023666 40.22040612 7.50000000 
28.78580442 38.98475616 7.50000000 
28.06348405 37.76455183 7.50000000 
28.75905182 36.52890187 7.50000000 
28.03673145 35.30869754 7.50000000 
28.73229921 34.07304758 7.50000000 
28.00997884 32.85284325 7.50000000 
28.70554661 31.61719329 7.50000000 
27.98322623 30.39698896 7.50000000 
28.67879400 29.16133900 7.50000000 
27.95647363 27.94113466 7.50000000 
28.65204139 26.70548471 7.50000000 
27.92972102 25.48528037 7.50000000 
28.62528879 24.24963042 7.50000000 
27.90296841 23.02942608 7.50000000 
28.59853618 21.79377612 7.50000000 
27.87621581 20.57357179 7.50000000 
28.57178357 19.33792183 7.50000000 
27.84946320 18.11771750 7.50000000 
28.54503097 16.88206754 7.50000000 
27.82271059 15.66186321 7.50000000 
28.51827836 14.42621325 7.50000000 
27.79595799 13.20600892 7.50000000 
28.49152575 11.97035896 7.50000000 
27.76920538 10.75015463 7.50000000 
28.46477315 9.51450467 7.50000000 
27.74245277 8.29430034 7.50000000 
28.43802054 7.05865038 7.50000000 
27.71570017 5.83844605 7.50000000 
28.41126793 4.60279609 7.50000000 
27.68894756 3.38259176 7.50000000 
28.38451533 2.14694180 7.50000000 
27.66219495 0.92673746 7.50000000 
31.05977597 52.46878632 7.50000000 
30.33745559 51.24858199 7.50000000 
31.03302336 50.01293203 7.50000000 
30.31070299 48.79272770 7.50000000 
31.00627075 47.55707774 7.50000000 
30.28395038 46.33687341 7.50000000 
30.97951815 45.10122345 7.50000000 
30.25719777 43.88101912 7.50000000 
30.95276554 42.64536916 7.50000000 
30.23044517 41.42516483 7.50000000 
30.92601293 40.18951487 7.50000000 
30.20369256 38.96931054 7.50000000 
30.89926033 37.73366058 7.50000000 
30.17693995 36.51345625 7.50000000 
30.87250772 35.27780629 7.50000000 
30.15018735 34.05760195 7.50000000 
30.84575511 32.82195200 7.50000000 
30.12343474 31.60174766 7.50000000 
30.81900251 30.36609771 7.50000000 
30.09668213 29.14589337 7.50000000 
30.79224990 27.91024342 7.50000000 
30.06992953 26.69003908 7.50000000 
30.76549729 25.45438912 7.50000000 
30.04317692 24.23418479 7.50000000 
30.73874469 22.99853483 7.50000000 
30.01642431 21.77833050 7.50000000 
30.71199208 20.54268054 7.50000000 
29.98967171 19.32247621 7.50000000 
30.68523947 18.08682625 7.50000000 
29.96291910 16.86662192 7.50000000 
30.65848687 15.63097196 7.50000000 
29.93616649 14.41076763 7.50000000 
30.63173426 13.17511767 7.50000000 
29.90941389 11.95491334 7.50000000 
30.60498165 10.71926338 7.50000000 
29.88266128 9.49905905 7.50000000 
30.57822905 8.26340909 7.50000000 
29.85590867 7.04320475 7.50000000 
30.55147644 5.80755480 7.50000000 
29.82915607 4.58735046 7.50000000 
30.52472383 3.35170051 7.50000000 
29.80240346 2.13149617 7.50000000 
30.49797123 0.89584622 7.50000000 
33.22673708 56.12939932 7.50000000 
32.50441671 54.90919499 7.50000000 
33.19998447 53.67354503 7.50000000 
32.47766410 52.45334070 7.50000000 
33.17323187 51.21769074 7.50000000 
32.45091149 49.99748641 7.50000000 
33.14647926 48.76183645 7.50000000 
32.42415889 47.54163212 7.50000000 
33.11972665 46.30598216 7.50000000 
32.39740628 45.08577783 7.50000000 
33.09297405 43.85012787 7.50000000 
32.37065367 42.62992354 7.50000000 
33.06622144 41.39427358 7.50000000 
32.34390107 40.17406924 7.50000000 
33.03946883 38.93841929 7.50000000 
32.31714846 37.71821495 7.50000000 
33.01271623 36.48256500 7.50000000 
32.29039585 35.26236066 7.50000000 
32.98596362 34.02671071 7.50000000 
32.26364325 32.80650637 7.50000000 
32.95921101 31.57085641 7.50000000 
32.23689064 30.35065208 7.50000000 
32.93245841 29.11500212 7.50000000 
32.21013803 27.89479779 7.50000000 
32.90570580 26.65914783 7.50000000 
32.18338543 25.43894350 7.50000000 
32.87895319 24.20329354 7.50000000 
32.15663282 22.98308921 7.50000000 
32.85220059 21.74743925 7.50000000 
32.12988021 20.52723492 7.50000000 
32.82544798 19.29158496 7.50000000 
32.10312761 18.07138063 7.50000000 
32.79869537 16.83573067 7.50000000 
32.07637500 15.61552634 7.50000000 
32.77194277 14.37987638 7.50000000 
32.04962240 13.15967205 7.50000000 
32.74519016 11.92402209 7.50000000 
32.02286979 10.70381775 7.50000000 
32.71843755 9.46816780 7.50000000 
31.99611718 8.24796346 7.50000000 
32.69168495 7.01231351 7.50000000 
31.96936458 5.79210917 7.50000000 
32.66493234 4.55645921 7.50000000 
31.94261197 3.33625488 7.50000000 
32.63817973 2.10060492 7.50000000 
31.91585936 0.88040059 7.50000000 
35.39369819 59.79001232 7.50000000 
34.67137782 58.56980799 7.50000000 
35.36694559 57.33415803 7.50000000 
34.64462522 56.11395370 7.50000000 
35.34019298 54.87830374 7.50000000 
34.61787261 53.65809941 7.50000000 
35.31344037 52.42244945 7.50000000 
34.59112000 51.20224512 7.50000000 
35.28668777 49.96659516 7.50000000 
34.56436740 48.74639083 7.50000000 
35.25993516 47.51074087 7.50000000 
34.53761479 46.29053654 7.50000000 
35.23318255 45.05488658 7.50000000 
34.51086218 43.83468224 7.50000000 
35.20642995 42.59903229 7.50000000 
34.48410958 41.37882795 7.50000000 
35.17967734 40.14317800 7.50000000 
34.45735697 38.92297366 7.50000000 
35.15292473 37.68732370 7.50000000 
34.43060436 36.46711937 7.50000000 
35.12617213 35.23146941 7.50000000 
34.40385176 34.01126508 7.50000000 
35.09941952 32.77561512 7.50000000 
34.37709915 31.55541079 7.50000000 
35.07266691 30.31976083 7.50000000 
34.35034654 29.09955650 7.50000000 
35.04591431 27.86390654 7.50000000 
34.32359394 26.64370221 7.50000000 
35.01916170 25.40805225 7.50000000 
34.29684133 24.18784792 7.50000000 
34.99240909 22.95219796 7.50000000 
34.27008872 21.73199363 7.50000000 
34.96565649 20.49634367 7.50000000 
34.24333612 19.27613934 7.50000000 
34.93890388 18.04048938 7.50000000 
34.21658351 16.82028504 7.50000000 
34.91215127 15.58463509 7.50000000 
34.18983090 14.36443075 7.50000000 
34.88539867 13.12878080 7.50000000 
34.16307830 11.90857646 7.50000000 
34.85864606 10.67292651 7.50000000 
34.13632569 9.45272217 7.50000000 
34.83189345 8.21707221 7.50000000 
34.10957308 6.99686788 7.50000000 
34.80514085 5.76121792 7.50000000 
34.08282048 4.54101359 7.50000000 
34.77838824 3.30536363 7.50000000 
34.05606787 2.08515930 7.50000000 
34.75163563 0.84950934 7.50000000 
37.56065931 63.45062532 7.50000000 
36.83833894 62.23042099 7.50000000 
37.53390670 60.99477103 7.50000000 
36.81158633 59.77456670 7.50000000 
37.50715409 58.53891674 7.50000000 
36.78483372 57.31871241 7.50000000 
37.48040149 56.08306245 7.50000000 
36.75808112 54.86285812 7.50000000 
37.45364888 53.62720816 7.50000000 
36.73132851 52.40700383 7.50000000 
37.42689627 51.17135387 7.50000000 
36.70457590 49.95114953 7.50000000 
37.40014367 48.71549958 7.50000000 
36.67782330 47.49529524 7.50000000 
37.37339106 46.25964529 7.50000000 
36.65107069 45.03944095 7.50000000 
37.34663845 43.80379099 7.50000000 
36.62431808 42.58358666 7.50000000 
37.31988585 41.34793670 7.50000000 
36.59756548 40.12773237 7.50000000 
37.29313324 38.89208241 7.50000000 
36.57081287 37.67187808 7.50000000 
37.26638063 36.43622812 7.50000000 
36.54406026 35.21602379 7.50000000 
37.23962803 33.98037383 7.50000000 
36.51730766 32.76016950 7.50000000 
37.21287542 31.52451954 7.50000000 
36.49055505 30.30431521 7.50000000 
37.18612281 29.06866525 7.50000000 
36.46380244 27.84846092 7.50000000 
37.15937021 26.61281096 7.50000000 
36.43704984 25.39260663 7.50000000 
37.13261760 24.15695667 7.50000000 
36.41029723 22.93675233 7.50000000 
37.10586499 21.70110238 7.50000000 
36.38354462 20.48089804 7.50000000 
37.07911239 19.24524809 7.50000000 
36.35679202 18.02504375 7.50000000 
37.05235978 16.78939380 7.50000000 
36.33003941 15.56918946 7.50000000 
37.02560717 14.33353950 7.50000000 
36.30328680 13.11333517 7.50000000 
36.99885457 11.87768521 7.50000000 
36.27653420 10.65748088 7.50000000 
36.97210196 9.42183092 7.50000000 
36.24978159 8.20162659 7.50000000 
36.94534935 6.96597663 7.50000000 
36.22302898 5.74577230 7.50000000 
36.91859675 4.51012234 7.50000000 
36.19627638 3.28991801 7.50000000 
36.89184414 2.05426805 7.50000000 
36.16952377 0.83406372 7.50000000 
39.72762042 67.11123832 7.50000000 
39.00530005 65.89103399 7.50000000 
39.70086781 64.65538403 7.50000000 
38.97854744 63.43517970 7.50000000 
39.67411521 62.19952974 7.50000000 
38.95179484 60.97932541 7.50000000 
39.64736260 59.74367545 7.50000000 
38.92504223 58.52347112 7.50000000 
39.62060999 57.28782116 7.50000000 
38.89828962 56.06761682 7.50000000 
39.59385739 54.83196687 7.50000000 
38.87153702 53.61176253 7.50000000 
39.56710478 52.37611258 7.50000000 
38.84478441 51.15590824 7.50000000 
39.54035217 49.92025829 7.50000000 
38.81803180 48.70005395 7.50000000 
39.51359957 47.46440399 7.50000000 
38.79127920 46.24419966 7.50000000 
39.48684696 45.00854970 7.50000000 
38.76452659 43.78834537 7.50000000 
39.46009435 42.55269541 7.50000000 
38.73777398 41.33249108 7.50000000 
39.43334175 40.09684112 7.50000000 
38.71102138 38.87663679 7.50000000 
39.40658914 37.64098683 7.50000000 
38.68426877 36.42078250 7.50000000 
39.37983653 35.18513254 7.50000000 
38.65751616 33.96492821 7.50000000 
39.35308393 32.72927825 7.50000000 
38.63076356 31.50907392 7.50000000 
39.32633132 30.27342396 7.50000000 
38.60401095 29.05321963 7.50000000 
39.29957871 27.81756967 7.50000000 
38.57725834 26.59736533 7.50000000 
39.27282611 25.36171538 7.50000000 
38.55050574 24.14151104 7.50000000 
39.24607350 22.90586109 7.50000000 
38.52375313 21.68565675 7.50000000 
39.21932089 20.45000679 7.50000000 
38.49700052 19.22980246 7.50000000 
39.19256829 17.99415250 7.50000000 
38.47024792 16.77394817 7.50000000 
39.16581568 15.53829821 7.50000000 
38.44349531 14.31809388 7.50000000 
39.13906307 13.08244392 7.50000000 
38.41674270 11.86223959 7.50000000 
39.11231047 10.62658963 7.50000000 
38.38999010 9.40638530 7.50000000 
39.08555786 8.17073534 7.50000000 
38.36323749 6.95053101 7.50000000 
39.05880525 5.71488105 7.50000000 
38.33648488 4.49467672 7.50000000 
39.03205265 3.25902676 7.50000000 
38.30973228 2.03882243 7.50000000 
39.00530004 0.80317247 7.50000000 
41.89458153 70.77185132 7.50000000 
41.17226116 69.55164699 7.50000000 
41.86782893 68.31599703 7.50000000 
41.14550856 67.09579270 7.50000000 
41.84107632 65.86014274 7.50000000 
41.11875595 64.63993841 7.50000000 
41.81432371 63.40428845 7.50000000 
41.09200334 62.18408411 7.50000000 
41.78757111 60.94843416 7.50000000 
41.06525074 59.72822982 7.50000000 
41.76081850 58.49257987 7.50000000 
41.03849813 57.27237553 7.50000000 
41.73406589 56.03672558 7.50000000 
41.01174552 54.81652124 7.50000000 
41.70731329 53.58087128 7.50000000 
40.98499292 52.36066695 7.50000000 
41.68056068 51.12501699 7.50000000 
40.95824031 49.90481266 7.50000000 
41.65380807 48.66916270 7.50000000 
40.93148770 47.44895837 7.50000000 
41.62705547 46.21330841 7.50000000 
40.90473510 44.99310408 7.50000000 
41.60030286 43.75745412 7.50000000 
40.87798249 42.53724979 7.50000000 
41.57355026 41.30159983 7.50000000 
40.85122988 40.08139550 7.50000000 
41.54679765 38.84574554 7.50000000 
40.82447728 37.62554121 7.50000000 
41.52004504 36.38989125 7.50000000 
40.79772467 35.16968692 7.50000000 
41.49329244 33.93403696 7.50000000 
40.77097206 32.71383262 7.50000000 
41.46653983 31.47818267 7.50000000 
40.74421946 30.25797833 7.50000000 
41.43978722 29.02232838 7.50000000 
40.71746685 27.80212404 7.50000000 
41.41303462 26.56647408 7.50000000 
40.69071424 25.34626975 7.50000000 
41.38628201 24.11061979 7.50000000 
40.66396164 22.89041546 7.50000000 
41.35952940 21.65476550 7.50000000 
40.63720903 20.43456117 7.50000000 
41.33277680 19.19891121 7.50000000 
40.61045642 17.97870688 7.50000000 
41.30602419 16.74305692 7.50000000 
40.58370382 15.52285259 7.50000000 
41.27927158 14.28720263 7.50000000 
40.55695121 13.06699830 7.50000000 
41.25251898 11.83134834 7.50000000 
40.53019860 10.61114401 7.50000000 
41.22576637 9.37549405 7.50000000 
40.50344600 8.15528972 7.50000000 
41.19901376 6.91963976 7.50000000 
40.47669339 5.69943542 7.50000000 
41.17226116 4.46378547 7.50000000 
40.44994078 3.24358113 7.50000000 
41.14550855 2.00793118 7.50000000 
40.42318818 0.78772684 7.50000000 
44.06154265 74.43246432 7.50000000 
43.33922228 73.21225999 7.50000000 
44.03479004 71.97661003 7.50000000 
43.31246967 70.75640570 7.50000000 
44.00803744 69.52075574 7.50000000 
43.28571706 68.30055141 7.50000000 
43.98128483 67.06490145 7.50000000 
43.25896446 65.84469711 7.50000000 
43.95453222 64.60904716 7.50000000 
43.23221185 63.38884282 7.50000000 
43.92777962 62.15319287 7.50000000 
43.20545924 60.93298853 7.50000000 
43.90102701 59.69733857 7.50000000 
43.17870664 58.47713424 7.50000000 
43.87427440 57.24148428 7.50000000 
43.15195403 56.02127995 7.50000000 
43.84752180 54.78562999 7.50000000 
43.12520142 53.56542566 7.50000000 
43.82076919 52.32977570 7.50000000 
43.09844882 51.10957137 7.50000000 
43.79401658 49.87392141 7.50000000 
43.07169621 48.65371708 7.50000000 
43.76726398 47.41806712 7.50000000 
43.04494360 46.19786279 7.50000000 
43.74051137 44.96221283 7.50000000 
43.01819100 43.74200850 7.50000000 
43.71375876 42.50635854 7.50000000 
42.99143839 41.28615421 7.50000000 
43.68700616 40.05050425 7.50000000 
42.96468578 38.83029991 7.50000000 
43.66025355 37.59464996 7.50000000 
42.93793318 36.37444562 7.50000000 
43.63350094 35.13879567 7.50000000 
42.91118057 33.91859133 7.50000000 
43.60674834 32.68294138 7.50000000 
42.88442796 31.46273704 7.50000000 
43.57999573 30.22708708 7.50000000 
42.85767536 29.00688275 7.50000000 
43.55324312 27.77123279 7.50000000 
42.83092275 26.55102846 7.50000000 
43.52649052 25.31537850 7.50000000 
42.80417014 24.09517417 7.50000000 
43.49973791 22.85952421 7.50000000 
42.77741754 21.63931988 7.50000000 
43.47298530 20.40366992 7.50000000 
42.75066493 19.18346559 7.50000000 
43.44623270 17.94781563 7.50000000 
42.72391232 16.72761130 7.50000000 
43.41948009 15.49196134 7.50000000 
42.69715972 14.27175701 7.50000000 
43.39272748 13.03610705 7.50000000 
42.67040711 11.81590271 7.50000000 
43.36597488 10.58025276 7.50000000 
42.64365450 9.36004842 7.50000000 
43.33922227 8.12439847 7.50000000 
42.61690190 6.90419413 7.50000000 
43.31246966 5.66854418 7.50000000 
42.59014929 4.44833984 7.50000000 
43.28571706 3.21268988 7.50000000 
42.56339668 1.99248555 7.50000000 
43.25896445 0.75683559 7.50000000 
46.22850376 78.09307732 7.50000000 
45.50618339 76.87287299 7.50000000 
46.20175116 75.63722303 7.50000000 
45.47943078 74.41701870 7.50000000 
46.17499855 73.18136874 7.50000000 
45.45267818 71.96116440 7.50000000 
46.14824594 70.72551445 7.50000000 
45.42592557 69.50531011 7.50000000 
46.12149334 68.26966016 7.50000000 
45.39917296 67.04945582 7.50000000 
46.09474073 65.81380586 7.50000000 
45.37242036 64.59360153 7.50000000 
46.06798812 63.35795157 7.50000000 
45.34566775 62.13774724 7.50000000 
46.04123552 60.90209728 7.50000000 
45.31891514 59.68189295 7.50000000 
46.01448291 58.44624299 7.50000000 
45.29216254 57.22603866 7.50000000 
45.98773030 55.99038870 7.50000000 
45.26540993 54.77018437 7.50000000 
45.96097770 53.53453441 7.50000000 
45.23865732 52.31433008 7.50000000 
45.93422509 51.07868012 7.50000000 
45.21190472 49.85847579 7.50000000 
45.90747248 48.62282583 7.50000000 
45.18515211 47.40262150 7.50000000 
45.88071988 46.16697154 7.50000000 
45.15839950 44.94676720 7.50000000 
45.85396727 43.71111725 7.50000000 
45.13164690 42.49091291 7.50000000 
45.82721466 41.25526296 7.50000000 
45.10489429 40.03505862 7.50000000 
45.80046206 38.79940867 7.50000000 
45.07814168 37.57920433 7.50000000 
45.77370945 36.34355437 7.50000000 
45.05138908 35.12335004 7.50000000 
45.74695684 33.88770008 7.50000000 
45.02463647 32.66749575 7.50000000 
45.72020424 31.43184579 7.50000000 
44.99788386 30.21164146 7.50000000 
45.69345163 28.97599150 7.50000000 
44.97113126 27.75578717 7.50000000 
45.66669902 26.52013721 7.50000000 
44.94437865 25.29993288 7.50000000 
45.63994642 24.06428292 7.50000000 
44.91762604 22.84407859 7.50000000 
45.61319381 21.60842863 7.50000000 
44.89087344 20.38822430 7.50000000 
45.58644120 19.15257434 7.50000000 
44.86412083 17.93237001 7.50000000 
45.55968860 16.69672005 7.50000000 
44.83736823 15.47651571 7.50000000 
45.53293599 14.24086576 7.50000000 
44.81061562 13.02066142 7.50000000 
45.50618338 11.78501147 7.50000000 
44.78386301 10.56480713 7.50000000 
45.47943078 9.32915717 7.50000000 
44.75711041 8.10895284 7.50000000 
45.45267817 6.87330288 7.50000000 
44.73035780 5.65309855 7.50000000 
45.42592556 4.41744859 7.50000000 
44.70360519 3.19724426 7.50000000 
45.39917296 1.96159430 7.50000000 
44.67685259 0.74138997 7.50000000 
48.39546488 81.75369032 7.50000000 
47.67314451 80.53348599 7.50000000 
48.36871227 79.29783603 7.50000000 
47.64639190 78.07763169 7.50000000 
48.34195966 76.84198174 7.50000000 
47.61963929 75.62177740 7.50000000 
48.31520706 74.38612745 7.50000000 
47.59288669 73.16592311 7.50000000 
48.28845445 71.93027316 7.50000000 
47.56613408 70.71006882 7.50000000 
48.26170184 69.47441886 7.50000000 
47.53938147 68.25421453 7.50000000 
48.23494924 67.01856457 7.50000000 
47.51262887 65.79836024 7.50000000 
48.20819663 64.56271028 7.50000000 
47.48587626 63.34250595 7.50000000 
48.18144402 62.10685599 7.50000000 
47.45912365 60.88665166 7.50000000 
48.15469142 59.65100170 7.50000000 
47.43237105 58.43079737 7.50000000 
48.12793881 57.19514741 7.50000000 
47.40561844 55.97494308 7.50000000 
48.10118620 54.73929312 7.50000000 
47.37886583 53.51908879 7.50000000 
48.07443360 52.28343883 7.50000000 
47.35211323 51.06323450 7.50000000 
48.04768099 49.82758454 7.50000000 
47.32536062 48.60738020 7.50000000 
48.02092838 47.37173025 7.50000000 
47.29860801 46.15152591 7.50000000 
47.99417578 44.91587596 7.50000000 
47.27185541 43.69567162 7.50000000 
47.96742317 42.46002166 7.50000000 
47.24510280 41.23981733 7.50000000 
47.94067056 40.00416737 7.50000000 
47.21835019 38.78396304 7.50000000 
47.91391796 37.54831308 7.50000000 
47.19159759 36.32810875 7.50000000 
47.88716535 35.09245879 7.50000000 
47.16484498 33.87225446 7.50000000 
47.86041274 32.63660450 7.50000000 
47.13809237 31.41640017 7.50000000 
47.83366014 30.18075021 7.50000000 
47.11133977 28.96054588 7.50000000 
47.80690753 27.72489592 7.50000000 
47.08458716 26.50469159 7.50000000 
47.78015492 25.26904163 7.50000000 
47.05783455 24.04883730 7.50000000 
47.75340232 22.81318734 7.50000000 
47.03108195 21.59298300 7.50000000 
47.72664971 20.35733305 7.50000000 
47.00432934 19.13712871 7.50000000 
47.69989710 17.90147876 7.50000000 
46.97757673 16.68127442 7.50000000 
47.67314450 15.44562446 7.50000000 
46.95082413 14.22542013 7.50000000 
47.64639189 12.98977017 7.50000000 
46.92407152 11.76956584 7.50000000 
47.61963928 10.53391588 7.50000000 
46.89731891 9.31371155 7.50000000 
47.59288668 8.07806159 7.50000000 
46.87056631 6.85785726 7.50000000 
47.56613407 5.62220730 7.50000000 
46.84381370 4.40200297 7.50000000 
47.53938146 3.16635301 7.50000000 
46.81706109 1.94614868 7.50000000 
47.51262886 0.71049872 7.50000000 
50.56242599 85.41430332 7.50000000 
49.84010562 84.19409898 7.50000000 
50.53567338 82.95844903 7.50000000 
49.81335301 81.73824469 7.50000000 
50.50892078 80.50259474 7.50000000 
49.78660041 79.28239040 7.50000000 
50.48216817 78.04674045 7.50000000 
49.75984780 76.82653611 7.50000000 
50.45541556 75.59088615 7.50000000 
49.73309519 74.37068182 7.50000000 
50.42866296 73.13503186 7.50000000 
49.70634259 71.91482753 7.50000000 
50.40191035 70.67917757 7.50000000 
49.67958998 69.45897324 7.50000000 
50.37515774 68.22332328 7.50000000 
49.65283737 67.00311895 7.50000000 
50.34840514 65.76746899 7.50000000 
49.62608477 64.54726466 7.50000000 
50.32165253 63.31161470 7.50000000 
49.59933216 62.09141037 7.50000000 
50.29489992 60.85576041 7.50000000 
49.57257955 59.63555608 7.50000000 
50.26814732 58.39990612 7.50000000 
49.54582695 57.17970179 7.50000000 
50.24139471 55.94405183 7.50000000 
49.51907434 54.72384749 7.50000000 
50.21464210 53.48819754 7.50000000 
49.49232173 52.26799320 7.50000000 
50.18788950 51.03234325 7.50000000 
49.46556913 49.81213891 7.50000000 
50.16113689 48.57648895 7.50000000 
49.43881652 47.35628462 7.50000000 
50.13438428 46.12063466 7.50000000 
49.41206391 44.90043033 7.50000000 
50.10763168 43.66478037 7.50000000 
49.38531131 42.44457604 7.50000000 
50.08087907 41.20892608 7.50000000 
49.35855870 39.98872175 7.50000000 
50.05412646 38.75307179 7.50000000 
49.33180609 37.53286746 7.50000000 
50.02737386 36.29721750 7.50000000 
49.30505349 35.07701317 7.50000000 
50.00062125 33.84136321 7.50000000 
49.27830088 32.62115888 7.50000000 
49.97386864 31.38550892 7.50000000 
49.25154827 30.16530459 7.50000000 
49.94711604 28.92965463 7.50000000 
49.22479567 27.70945029 7.50000000 
49.92036343 26.47380034 7.50000000 
49.19804306 25.25359600 7.50000000 
49.89361082 24.01794605 7.50000000 